 C  N  H Mn                             
   1.00000000000000     
    26.3707047579629794    0.0000000000000000    0.0000000000000000
     0.0000000000000000   26.3703306305616394    0.0000000000000000
     0.0000000000000000    0.0000000000000000   25.0000000000000000
   C    N    H    Mn
    60     8    32     1
Direct
  0.2521950379198057  0.1968274128952079  0.2005600498291773
  0.2040056561381950  0.1714759342168987  0.1993860505155175
  0.1671564579656661  0.2083045676421864  0.1994119204521890
  0.1924663088727668  0.2565241094316028  0.2005823511575956
  0.3462836498796037  0.1969213239096480  0.1994645204669884
  0.3948352000006561  0.1715304008201264  0.2005547271657135
  0.4060576203969371  0.2567176692801468  0.1994547768483823
  0.4314505622998536  0.2081639562511627  0.2005504292017806
  0.2523208755118913  0.4104903593721559  0.1994437783662846
  0.1925723206432424  0.3506366378451038  0.1994631224184941
  0.2037437483285178  0.4358446260049267  0.2005353898493708
  0.1671470185698841  0.3991840257896728  0.2005489984814953
  0.4060974947229989  0.3508189122248417  0.2005502535183345
  0.4314301896872973  0.3990183587827327  0.1994378358322797
  0.3463906912195636  0.4105803672459400  0.2005612101532100
  0.3946156949046421  0.4358797257532669  0.1994427002673113
  0.2991457266777862  0.4356988660025227  0.2000445345471610
  0.1674036979478665  0.3037884246593882  0.2000633508407596
  0.2994521816463401  0.1717480838967531  0.2000413840267823
  0.2993596974535485  0.1150358188046044  0.2000141613959824
  0.3194702339096880  0.0874624284840324  0.1564122885311474
  0.2789774006281381  0.0874433675283050  0.2434841296864839
  0.3197616662398516  0.0345307636933852  0.1560329864097901
  0.2787308850103418  0.0345217654649430  0.2438307028441578
  0.2993542894414501  0.0074133179468364  0.1999774747692483
  0.4312168952215056  0.3035638712429966  0.2000306945939613
  0.2992569113059074  0.4924512637703778  0.2000448658109443
  0.4879674702889027  0.3036620775860157  0.2000317557797480
  0.1106816052903947  0.3037056281572876  0.2000361242912609
  0.2791225298132853  0.5200755453128020  0.1564654699581830
  0.5155783299577985  0.2835588444181120  0.1564314576456004
  0.0831181619401083  0.3238445919698471  0.1564260666737251
  0.3196017672955436  0.5200675771008532  0.2435302372108792
  0.5155734043002956  0.3239624790407543  0.2435497298241016
  0.0830448713154882  0.2833854523580725  0.2435081074850739
  0.2789063231504585  0.5730098489681592  0.1560650263336904
  0.5685141065954546  0.2833166096880736  0.1560629639696937
  0.0301854170477279  0.3241914632995895  0.1560354500722184
  0.3198984291648601  0.5730043312323748  0.2438731066903904
  0.5685061871884930  0.3242312621982464  0.2439132148566217
  0.0301185432252081  0.2832040577660549  0.2438461489450758
  0.2993807599504771  0.6001211711441251  0.1999826217141622
  0.5956308034550013  0.3037268484849855  0.2000144808397905
  0.0030153879709443  0.3037854065051355  0.1999613164448350
  0.6930016545114782  0.3035960783274305  0.2000266860898571
  0.9056104820121984  0.3037941611719693  0.1999983567406791
  0.2992881016469442  0.6974957203601958  0.2000193209101863
  0.2994867877492717  0.9100373162804383  0.2000409165776067
  0.7445802813345611  0.3035995771884427  0.1999762418830181
  0.7734479171453305  0.2562807893145126  0.1998159843031636
  0.7733448215888524  0.3509785436497257  0.2001400981387496
  0.8252373933489023  0.2563449981062722  0.2002323049706717
  0.8251307047050681  0.3510338647416222  0.1997258775431781
  0.8540118579521370  0.3037226568022915  0.1999906525959972
  0.2993073974171890  0.7490710133293556  0.1999920114092857
  0.3466990363376446  0.7778214380481978  0.2001534298832986
  0.2519950257646077  0.7779261938226317  0.1997876875273688
  0.3467586987809527  0.8296036947883783  0.1997181815178058
  0.2520568906397270  0.8297139447829590  0.2002234438266254
  0.2994367467598216  0.8584637038701730  0.1999973737631852
  0.2450500949511421  0.2494027051231166  0.2009501288046287
  0.2452825278876882  0.3577592789012209  0.1991593956238799
  0.3533504609660883  0.2496380447857197  0.1991667819257911
  0.3535212344882785  0.3579842146268994  0.2009064876414220
  0.6475368759944939  0.3036857045382266  0.2000078377331013
  0.9510871922814534  0.3038503736087835  0.1999739126191512
  0.2993593829815482  0.6520231973967815  0.1999735094842522
  0.2994538135082397  0.9555111847212291  0.2000044697854123
  0.1985100224177250  0.1307288275498583  0.1982914001304709
  0.1264181366840363  0.2027821861120722  0.1983167454972501
  0.4002466302396311  0.1307658738565742  0.2016167206681510
  0.4722179650595196  0.2027848794612788  0.2016185031214916
  0.1983535651406448  0.4766101820284948  0.2016068540361891
  0.1263801337224362  0.4045012753181265  0.2016297203514369
  0.4721820730002319  0.4044884633343964  0.1983462809959174
  0.4001787914518393  0.4766204976404123  0.1983501119088729
  0.3343558887389226  0.1081961872250441  0.1220301976145055
  0.2638257314986492  0.1081256668149854  0.2777680729241068
  0.3349630526504276  0.0135988578231327  0.1219786873911722
  0.2634597050069559  0.0135422412732051  0.2778182870550713
  0.2642086046202253  0.4993812234084962  0.1220731823284758
  0.4948839010017049  0.2686447665137048  0.1220357843156025
  0.1038668194440535  0.3387087219582194  0.1220422736258636
  0.3347265907890574  0.4994078190121866  0.2778445636339780
  0.4949000337543635  0.3390748792777596  0.2778590361855744
  0.1036977608913406  0.2682164221742900  0.2778088425172426
  0.2637588586959820  0.5939850142746936  0.1220114618840927
  0.5894764028751653  0.2681782915778692  0.1219951924188333
  0.0092719373111368  0.3394049342971525  0.1219768948156315
  0.3351521767421706  0.5939890380153354  0.2778695743219889
  0.5894814462953112  0.3394850588249642  0.2779140790941503
  0.0091353023899912  0.2679783844496915  0.2778539339288864
  0.7529037868963850  0.2203419570304939  0.1998109106174287
  0.7527265895410794  0.3868764182083906  0.2000770556989415
  0.8458785092596904  0.2204541804719083  0.2002632687124357
  0.8457022811662698  0.3869615226893443  0.1996274392669646
  0.3826009397386352  0.7572068497829400  0.2001430202146189
  0.2160674058216425  0.7573714157144247  0.1997186385613856
  0.3826996968985272  0.8501517514055966  0.1996438823764870
  0.2161679995342086  0.8503380521235866  0.2002202548205974
  0.2993046827536452  0.3036952092111818  0.1999346461524427
 
  0.00000000E+00  0.00000000E+00  0.00000000E+00
  0.00000000E+00  0.00000000E+00  0.00000000E+00
  0.00000000E+00  0.00000000E+00  0.00000000E+00
  0.00000000E+00  0.00000000E+00  0.00000000E+00
  0.00000000E+00  0.00000000E+00  0.00000000E+00
  0.00000000E+00  0.00000000E+00  0.00000000E+00
  0.00000000E+00  0.00000000E+00  0.00000000E+00
  0.00000000E+00  0.00000000E+00  0.00000000E+00
  0.00000000E+00  0.00000000E+00  0.00000000E+00
  0.00000000E+00  0.00000000E+00  0.00000000E+00
  0.00000000E+00  0.00000000E+00  0.00000000E+00
  0.00000000E+00  0.00000000E+00  0.00000000E+00
  0.00000000E+00  0.00000000E+00  0.00000000E+00
  0.00000000E+00  0.00000000E+00  0.00000000E+00
  0.00000000E+00  0.00000000E+00  0.00000000E+00
  0.00000000E+00  0.00000000E+00  0.00000000E+00
  0.00000000E+00  0.00000000E+00  0.00000000E+00
  0.00000000E+00  0.00000000E+00  0.00000000E+00
  0.00000000E+00  0.00000000E+00  0.00000000E+00
  0.00000000E+00  0.00000000E+00  0.00000000E+00
  0.00000000E+00  0.00000000E+00  0.00000000E+00
  0.00000000E+00  0.00000000E+00  0.00000000E+00
  0.00000000E+00  0.00000000E+00  0.00000000E+00
  0.00000000E+00  0.00000000E+00  0.00000000E+00
  0.00000000E+00  0.00000000E+00  0.00000000E+00
  0.00000000E+00  0.00000000E+00  0.00000000E+00
  0.00000000E+00  0.00000000E+00  0.00000000E+00
  0.00000000E+00  0.00000000E+00  0.00000000E+00
  0.00000000E+00  0.00000000E+00  0.00000000E+00
  0.00000000E+00  0.00000000E+00  0.00000000E+00
  0.00000000E+00  0.00000000E+00  0.00000000E+00
  0.00000000E+00  0.00000000E+00  0.00000000E+00
  0.00000000E+00  0.00000000E+00  0.00000000E+00
  0.00000000E+00  0.00000000E+00  0.00000000E+00
  0.00000000E+00  0.00000000E+00  0.00000000E+00
  0.00000000E+00  0.00000000E+00  0.00000000E+00
  0.00000000E+00  0.00000000E+00  0.00000000E+00
  0.00000000E+00  0.00000000E+00  0.00000000E+00
  0.00000000E+00  0.00000000E+00  0.00000000E+00
  0.00000000E+00  0.00000000E+00  0.00000000E+00
  0.00000000E+00  0.00000000E+00  0.00000000E+00
  0.00000000E+00  0.00000000E+00  0.00000000E+00
  0.00000000E+00  0.00000000E+00  0.00000000E+00
  0.00000000E+00  0.00000000E+00  0.00000000E+00
  0.00000000E+00  0.00000000E+00  0.00000000E+00
  0.00000000E+00  0.00000000E+00  0.00000000E+00
  0.00000000E+00  0.00000000E+00  0.00000000E+00
  0.00000000E+00  0.00000000E+00  0.00000000E+00
  0.00000000E+00  0.00000000E+00  0.00000000E+00
  0.00000000E+00  0.00000000E+00  0.00000000E+00
  0.00000000E+00  0.00000000E+00  0.00000000E+00
  0.00000000E+00  0.00000000E+00  0.00000000E+00
  0.00000000E+00  0.00000000E+00  0.00000000E+00
  0.00000000E+00  0.00000000E+00  0.00000000E+00
  0.00000000E+00  0.00000000E+00  0.00000000E+00
  0.00000000E+00  0.00000000E+00  0.00000000E+00
  0.00000000E+00  0.00000000E+00  0.00000000E+00
  0.00000000E+00  0.00000000E+00  0.00000000E+00
  0.00000000E+00  0.00000000E+00  0.00000000E+00
  0.00000000E+00  0.00000000E+00  0.00000000E+00
  0.00000000E+00  0.00000000E+00  0.00000000E+00
  0.00000000E+00  0.00000000E+00  0.00000000E+00
  0.00000000E+00  0.00000000E+00  0.00000000E+00
  0.00000000E+00  0.00000000E+00  0.00000000E+00
  0.00000000E+00  0.00000000E+00  0.00000000E+00
  0.00000000E+00  0.00000000E+00  0.00000000E+00
  0.00000000E+00  0.00000000E+00  0.00000000E+00
  0.00000000E+00  0.00000000E+00  0.00000000E+00
  0.00000000E+00  0.00000000E+00  0.00000000E+00
  0.00000000E+00  0.00000000E+00  0.00000000E+00
  0.00000000E+00  0.00000000E+00  0.00000000E+00
  0.00000000E+00  0.00000000E+00  0.00000000E+00
  0.00000000E+00  0.00000000E+00  0.00000000E+00
  0.00000000E+00  0.00000000E+00  0.00000000E+00
  0.00000000E+00  0.00000000E+00  0.00000000E+00
  0.00000000E+00  0.00000000E+00  0.00000000E+00
  0.00000000E+00  0.00000000E+00  0.00000000E+00
  0.00000000E+00  0.00000000E+00  0.00000000E+00
  0.00000000E+00  0.00000000E+00  0.00000000E+00
  0.00000000E+00  0.00000000E+00  0.00000000E+00
  0.00000000E+00  0.00000000E+00  0.00000000E+00
  0.00000000E+00  0.00000000E+00  0.00000000E+00
  0.00000000E+00  0.00000000E+00  0.00000000E+00
  0.00000000E+00  0.00000000E+00  0.00000000E+00
  0.00000000E+00  0.00000000E+00  0.00000000E+00
  0.00000000E+00  0.00000000E+00  0.00000000E+00
  0.00000000E+00  0.00000000E+00  0.00000000E+00
  0.00000000E+00  0.00000000E+00  0.00000000E+00
  0.00000000E+00  0.00000000E+00  0.00000000E+00
  0.00000000E+00  0.00000000E+00  0.00000000E+00
  0.00000000E+00  0.00000000E+00  0.00000000E+00
  0.00000000E+00  0.00000000E+00  0.00000000E+00
  0.00000000E+00  0.00000000E+00  0.00000000E+00
  0.00000000E+00  0.00000000E+00  0.00000000E+00
  0.00000000E+00  0.00000000E+00  0.00000000E+00
  0.00000000E+00  0.00000000E+00  0.00000000E+00
  0.00000000E+00  0.00000000E+00  0.00000000E+00
  0.00000000E+00  0.00000000E+00  0.00000000E+00
  0.00000000E+00  0.00000000E+00  0.00000000E+00
  0.00000000E+00  0.00000000E+00  0.00000000E+00
  0.00000000E+00  0.00000000E+00  0.00000000E+00
