 C  N Ni                                
   1.00000000000000     
     8.4467674732295155    0.0000000000000001    0.0000000000000000
    -0.0000000000000001    8.4467857162254631    0.0000000000000000
    -0.0000000000000002    0.0000000000000000   19.8713392818999957
   C    N    Ni
    23     1     1
Direct
  0.5009740148853060  0.0816197479323925  0.1543049902966445
  0.3561177672275321  0.1666955319150970  0.1542799542206313
  0.6454023055967593  0.1650315334642035  0.1542465824660095
  0.7968287978669598  0.9176615596151320  0.1539871985709521
  0.7947898825798320  0.0828227719895654  0.1540047469672313
  0.9175317095548253  0.2061468948200884  0.1539854856090045
  0.8307192489856290  0.3559748738082109  0.1542123840460108
  0.2056526975033241  0.0820865348059887  0.1540279694705084
  0.0821233217540492  0.2056285921146798  0.1540017746651732
  0.1667468243570803  0.3560824237365793  0.1542478095726079
  0.0816676024342221  0.5009299108880607  0.1542695911295554
  0.1650778412628861  0.6453636383903704  0.1542621712099292
  0.3560133526418311  0.8306831832514143  0.1542758570806901
  0.2061784491192561  0.9175011856672217  0.1540418704658092
  0.0828614068684342  0.7947412740343088  0.1540350672411699
  0.6483082151608378  0.8316028906590288  0.1542236877187675
  0.8316442738141191  0.6482595046960598  0.1542093036679711
  0.9176992973840555  0.7967818774617058  0.1539916122198715
  0.5009687381062455  0.9122293317685564  0.1542883572752992
  0.9122754891772799  0.5009313852199719  0.1542397859521023
  0.6620200504682860  0.3344522388281320  0.1544018860314087
  0.3366340021381479  0.3365795900617848  0.1544474221270433
  0.3345028433902750  0.6619900992771167  0.1544464598868859
  0.6698479918609048  0.6698044568242449  0.1543562935882440
  0.4977634357930321  0.4977118863582560  0.1546247483412728
 
  0.00000000E+00  0.00000000E+00  0.00000000E+00
  0.00000000E+00  0.00000000E+00  0.00000000E+00
  0.00000000E+00  0.00000000E+00  0.00000000E+00
  0.00000000E+00  0.00000000E+00  0.00000000E+00
  0.00000000E+00  0.00000000E+00  0.00000000E+00
  0.00000000E+00  0.00000000E+00  0.00000000E+00
  0.00000000E+00  0.00000000E+00  0.00000000E+00
  0.00000000E+00  0.00000000E+00  0.00000000E+00
  0.00000000E+00  0.00000000E+00  0.00000000E+00
  0.00000000E+00  0.00000000E+00  0.00000000E+00
  0.00000000E+00  0.00000000E+00  0.00000000E+00
  0.00000000E+00  0.00000000E+00  0.00000000E+00
  0.00000000E+00  0.00000000E+00  0.00000000E+00
  0.00000000E+00  0.00000000E+00  0.00000000E+00
  0.00000000E+00  0.00000000E+00  0.00000000E+00
  0.00000000E+00  0.00000000E+00  0.00000000E+00
  0.00000000E+00  0.00000000E+00  0.00000000E+00
  0.00000000E+00  0.00000000E+00  0.00000000E+00
  0.00000000E+00  0.00000000E+00  0.00000000E+00
  0.00000000E+00  0.00000000E+00  0.00000000E+00
  0.00000000E+00  0.00000000E+00  0.00000000E+00
  0.00000000E+00  0.00000000E+00  0.00000000E+00
  0.00000000E+00  0.00000000E+00  0.00000000E+00
  0.00000000E+00  0.00000000E+00  0.00000000E+00
  0.00000000E+00  0.00000000E+00  0.00000000E+00
