 C  N Co                                
   1.00000000000000     
     8.4347075584395199    0.0000000000000001    0.0000000000000000
    -0.0000000000000001    8.4346019982473024    0.0000000000000000
    -0.0000000000000002    0.0000000000000000   19.8713392818999957
   C    N    Co
    22     2     1
Direct
  0.5001335547697524  0.0850875064314374  0.1542645405535440
  0.3554958269572395  0.1670087854908872  0.1542655951181801
  0.6471850318910027  0.1675839169272778  0.1542200581457176
  0.7940712675954775  0.9168066998645169  0.1541674054661821
  0.7958265144721721  0.0824174471289832  0.1541776182892740
  0.9175793555313185  0.2041007306215909  0.1541676373658174
  0.8324975736970972  0.3527886999773219  0.1541944995598121
  0.2057671005699954  0.0830938610080896  0.1541702230630045
  0.0830918208615539  0.2058362169746827  0.1541612789523668
  0.1671235288428590  0.3554605037384779  0.1542075725280235
  0.0852324607086092  0.5001249045883578  0.1542220364986083
  0.1675892076631479  0.6472131895581096  0.1542214507912353
  0.3527690314761019  0.8324543331556545  0.1542512103882881
  0.2040738341122202  0.9175925360425915  0.1541572644952087
  0.0824144544988330  0.7958493855849401  0.1541389755082321
  0.6445109612426911  0.8327866484582365  0.1542220006987048
  0.8329590710283836  0.6445218168419586  0.1542158200115777
  0.9167781415977544  0.7941187024746201  0.1541427847700250
  0.4998594918841573  0.9148316257081146  0.1542670906306906
  0.9149766155134849  0.4998303434737125  0.1542103300551343
  0.6640160773089141  0.6638214173933257  0.1542697759091914
  0.3362268351325341  0.3360166607482992  0.1542944855813236
  0.6687628349683885  0.3313051754302791  0.1541893193586872
  0.3313345110003078  0.6687489487939541  0.1543095900655361
  0.5000744576762598  0.4999128608270300  0.1543044460164281
 
  0.00000000E+00  0.00000000E+00  0.00000000E+00
  0.00000000E+00  0.00000000E+00  0.00000000E+00
  0.00000000E+00  0.00000000E+00  0.00000000E+00
  0.00000000E+00  0.00000000E+00  0.00000000E+00
  0.00000000E+00  0.00000000E+00  0.00000000E+00
  0.00000000E+00  0.00000000E+00  0.00000000E+00
  0.00000000E+00  0.00000000E+00  0.00000000E+00
  0.00000000E+00  0.00000000E+00  0.00000000E+00
  0.00000000E+00  0.00000000E+00  0.00000000E+00
  0.00000000E+00  0.00000000E+00  0.00000000E+00
  0.00000000E+00  0.00000000E+00  0.00000000E+00
  0.00000000E+00  0.00000000E+00  0.00000000E+00
  0.00000000E+00  0.00000000E+00  0.00000000E+00
  0.00000000E+00  0.00000000E+00  0.00000000E+00
  0.00000000E+00  0.00000000E+00  0.00000000E+00
  0.00000000E+00  0.00000000E+00  0.00000000E+00
  0.00000000E+00  0.00000000E+00  0.00000000E+00
  0.00000000E+00  0.00000000E+00  0.00000000E+00
  0.00000000E+00  0.00000000E+00  0.00000000E+00
  0.00000000E+00  0.00000000E+00  0.00000000E+00
  0.00000000E+00  0.00000000E+00  0.00000000E+00
  0.00000000E+00  0.00000000E+00  0.00000000E+00
  0.00000000E+00  0.00000000E+00  0.00000000E+00
  0.00000000E+00  0.00000000E+00  0.00000000E+00
  0.00000000E+00  0.00000000E+00  0.00000000E+00
