 C  N Cr                                
   1.00000000000000     
    12.5147545434156147    0.0000000000000000    0.0000000000000000
    -0.0000000000000004   12.8067380469379426    0.0000000000000000
     0.0000000000000003    0.0000000000000000   19.8713392819153718
   C    N    Cr
    55     3     1
Direct
  0.0521041001295405  0.0476335548119920  0.1594010782138276
  0.1522657984021291  0.1023879531149034  0.1593667587023239
  0.1517727355276507  0.2136276655785556  0.1592912997418322
  0.0522195370886385  0.2686717321024124  0.1592361814432553
  0.2525311041756260  0.0474715828505026  0.1593982315744685
  0.3525997181431558  0.1027180563771088  0.1594101679624793
  0.3516343810853767  0.2146093608518278  0.1593756404271742
  0.2510630344449631  0.2692135377454120  0.1592995649688284
  0.4532205195446029  0.0479711640948721  0.1594413942478806
  0.5529192538585392  0.1060079686437363  0.1594475500690726
  0.5528385979866028  0.2187274441204205  0.1594405728340668
  0.4501233283724666  0.2729353157463077  0.1594061500235797
  0.6516924841841654  0.0475684523920571  0.1594465964251768
  0.7517420315790172  0.1028748571159071  0.1594097670853508
  0.7529795392740537  0.2150088464404366  0.1593905736972807
  0.6552070819497012  0.2740789254039833  0.1594382160233195
  0.8518177187037002  0.0476437216193452  0.1593876350667005
  0.9521134203512704  0.1023485752468644  0.1593642323058203
  0.9526556158253600  0.2135387233248049  0.1592866733472840
  0.8536463143397607  0.2689073128833570  0.1593030455507023
  0.0517920931245787  0.3802610619486899  0.1591852961049071
  0.1495565177819098  0.4362174767225608  0.1591838860540774
  0.1496668525916745  0.5475744434060290  0.1591896325195351
  0.0520905524743641  0.6035159469891627  0.1592068813974288
  0.2480511917920279  0.3807128479246115  0.1592593050059632
  0.3455429343685780  0.4362805857987132  0.1593208977972303
  0.3448958558732585  0.5499275381760332  0.1592833427991605
  0.2478287219922669  0.6043456626203748  0.1592397620576899
  0.7578375903302955  0.4349271438713951  0.1593623925268398
  0.7583534143118460  0.5490017044340774  0.1593460720917959
  0.8554849479993361  0.3805021803748592  0.1592641927755824
  0.9540193882555340  0.4363295057113963  0.1591671893911693
  0.9542975546369956  0.5473781696327958  0.1591612422925715
  0.8561057899085954  0.6032633232335752  0.1592384980168921
  0.0521215907652670  0.7151285649618897  0.1592553811346171
  0.1513796963683085  0.7707069426651001  0.1593060992614309
  0.0521065867884303  0.9365942570712221  0.1594087947984804
  0.2503400337377318  0.7154296811475385  0.1592868060608092
  0.3511982621862075  0.7688039608624769  0.1593849332405624
  0.3526722702796012  0.8806591691349464  0.1594353438930642
  0.2525922137698243  0.9360728793869488  0.1594123193374007
  0.4487740828976895  0.7090351995908623  0.1594010101280667
  0.5522528285218916  0.7629361133592697  0.1594580498827567
  0.5522337233033665  0.8763645311068775  0.1594904353626845
  0.4532337051335068  0.9351563184763731  0.1594596577802730
  0.6559046297581017  0.7093641999949420  0.1594632688474587
  0.7534813349408049  0.7688233898271079  0.1594114134160096
  0.7519385027672330  0.8805793232359814  0.1594291438843251
  0.6515296811917108  0.9349096153967420  0.1594738672722269
  0.8538532416876404  0.7147702348824245  0.1593076327533151
  0.9528456429280017  0.7703481063107697  0.1593034125561777
  0.8518804417185414  0.9361843578358746  0.1593956129913144
  0.1520882714422976  0.8817313117815618  0.1593748235130426
  0.9522013530835185  0.8816022791846747  0.1593680068424990
  0.4442086016188158  0.3831212057558120  0.1593663921598363
  0.4412036966129534  0.6018226300304406  0.1593042143422321
  0.6616007300256682  0.3820840685502489  0.1594222160925234
  0.6632145177272381  0.6026457309924736  0.1594361094829163
  0.5526547303275434  0.4915235832652762  0.1590751938966282
 
  0.00000000E+00  0.00000000E+00  0.00000000E+00
  0.00000000E+00  0.00000000E+00  0.00000000E+00
  0.00000000E+00  0.00000000E+00  0.00000000E+00
  0.00000000E+00  0.00000000E+00  0.00000000E+00
  0.00000000E+00  0.00000000E+00  0.00000000E+00
  0.00000000E+00  0.00000000E+00  0.00000000E+00
  0.00000000E+00  0.00000000E+00  0.00000000E+00
  0.00000000E+00  0.00000000E+00  0.00000000E+00
  0.00000000E+00  0.00000000E+00  0.00000000E+00
  0.00000000E+00  0.00000000E+00  0.00000000E+00
  0.00000000E+00  0.00000000E+00  0.00000000E+00
  0.00000000E+00  0.00000000E+00  0.00000000E+00
  0.00000000E+00  0.00000000E+00  0.00000000E+00
  0.00000000E+00  0.00000000E+00  0.00000000E+00
  0.00000000E+00  0.00000000E+00  0.00000000E+00
  0.00000000E+00  0.00000000E+00  0.00000000E+00
  0.00000000E+00  0.00000000E+00  0.00000000E+00
  0.00000000E+00  0.00000000E+00  0.00000000E+00
  0.00000000E+00  0.00000000E+00  0.00000000E+00
  0.00000000E+00  0.00000000E+00  0.00000000E+00
  0.00000000E+00  0.00000000E+00  0.00000000E+00
  0.00000000E+00  0.00000000E+00  0.00000000E+00
  0.00000000E+00  0.00000000E+00  0.00000000E+00
  0.00000000E+00  0.00000000E+00  0.00000000E+00
  0.00000000E+00  0.00000000E+00  0.00000000E+00
  0.00000000E+00  0.00000000E+00  0.00000000E+00
  0.00000000E+00  0.00000000E+00  0.00000000E+00
  0.00000000E+00  0.00000000E+00  0.00000000E+00
  0.00000000E+00  0.00000000E+00  0.00000000E+00
  0.00000000E+00  0.00000000E+00  0.00000000E+00
  0.00000000E+00  0.00000000E+00  0.00000000E+00
  0.00000000E+00  0.00000000E+00  0.00000000E+00
  0.00000000E+00  0.00000000E+00  0.00000000E+00
  0.00000000E+00  0.00000000E+00  0.00000000E+00
  0.00000000E+00  0.00000000E+00  0.00000000E+00
  0.00000000E+00  0.00000000E+00  0.00000000E+00
  0.00000000E+00  0.00000000E+00  0.00000000E+00
  0.00000000E+00  0.00000000E+00  0.00000000E+00
  0.00000000E+00  0.00000000E+00  0.00000000E+00
  0.00000000E+00  0.00000000E+00  0.00000000E+00
  0.00000000E+00  0.00000000E+00  0.00000000E+00
  0.00000000E+00  0.00000000E+00  0.00000000E+00
  0.00000000E+00  0.00000000E+00  0.00000000E+00
  0.00000000E+00  0.00000000E+00  0.00000000E+00
  0.00000000E+00  0.00000000E+00  0.00000000E+00
  0.00000000E+00  0.00000000E+00  0.00000000E+00
  0.00000000E+00  0.00000000E+00  0.00000000E+00
  0.00000000E+00  0.00000000E+00  0.00000000E+00
  0.00000000E+00  0.00000000E+00  0.00000000E+00
  0.00000000E+00  0.00000000E+00  0.00000000E+00
  0.00000000E+00  0.00000000E+00  0.00000000E+00
  0.00000000E+00  0.00000000E+00  0.00000000E+00
  0.00000000E+00  0.00000000E+00  0.00000000E+00
  0.00000000E+00  0.00000000E+00  0.00000000E+00
  0.00000000E+00  0.00000000E+00  0.00000000E+00
  0.00000000E+00  0.00000000E+00  0.00000000E+00
  0.00000000E+00  0.00000000E+00  0.00000000E+00
  0.00000000E+00  0.00000000E+00  0.00000000E+00
  0.00000000E+00  0.00000000E+00  0.00000000E+00
