 C  N  V                                
   1.00000000000000     
    12.5073929764187373    0.0000000000000000    0.0000000000000000
    -0.0000000000000004   12.7953197422403946    0.0000000000000000
     0.0000000000000003    0.0000000000000000   20.0000000000000000
   C    N    V 
    54     4     1
Direct
  0.0522044529364031  0.0473654442212298  0.1583135572610890
  0.1524168397609963  0.1022842727951239  0.1583112995773585
  0.1518543910253778  0.2136216933889538  0.1582679414065325
  0.0522055381264132  0.2689322815680560  0.1582192175504039
  0.2527477665908881  0.0476792118598879  0.1583766355071626
  0.3528632173566109  0.1031814131700255  0.1584083791288819
  0.3515243690112324  0.2149153743051030  0.1583595655113649
  0.2507263944832496  0.2690357222518434  0.1582879031085981
  0.4534383047316042  0.0482885672992281  0.1584204177111344
  0.5522050402526635  0.1066243310818628  0.1584278074586113
  0.5522071945242106  0.2205977260726644  0.1583967743672305
  0.4492318299783937  0.2742154388074350  0.1583411734088701
  0.6509697846112581  0.0482843982847071  0.1584248580882744
  0.7515420581879910  0.1031708807691630  0.1584024792847406
  0.7528931751990569  0.2149128500733209  0.1583726158008450
  0.6551830033912437  0.2742178865334438  0.1584251406858398
  0.8516598836482383  0.0476700140675234  0.1583781135257280
  0.9519842759844741  0.1022823289062590  0.1583156839779207
  0.9525486422906495  0.2136243463398670  0.1582613814329308
  0.8536865120622559  0.2690412772574886  0.1582836175104767
  0.0522142863567816  0.3800525964131297  0.1581647187074489
  0.1500361345517709  0.4363708088083840  0.1581728746779695
  0.1500473224040597  0.5473873899485562  0.1581677857295953
  0.0522132170989262  0.6037079718535763  0.1581614326390204
  0.2485145449033589  0.3806534963240944  0.1582441213049857
  0.3458808207007230  0.4355226927241430  0.1582359235723197
  0.3458949127853475  0.5482286286381725  0.1582363380412851
  0.2485212920735676  0.6030898873249000  0.1582285208588791
  0.7585318948953629  0.4355232151841962  0.1583695436667054
  0.7585057718656862  0.5482262392768666  0.1583543303272043
  0.8559068451710410  0.3806659424622100  0.1582579129155360
  0.9543884315955756  0.4363760011137633  0.1581579644478332
  0.9543682432530184  0.5473939443477956  0.1581545265878401
  0.8558769704297572  0.6030833972033657  0.1582379351966542
  0.0522112722735424  0.7148106745198997  0.1582263808385914
  0.1518764976796893  0.7701104169715429  0.1582697193026985
  0.0522086980146489  0.9363434984940088  0.1583144633708817
  0.2507410255612280  0.7146998872868792  0.1582827099099725
  0.3515352870163452  0.7688286372241229  0.1583442424802803
  0.3528712325964370  0.8805598645140518  0.1583954833238444
  0.2527471237584855  0.9360404825193906  0.1583679137976496
  0.4492432619369933  0.7095848115305433  0.1583373876687392
  0.5522040264797945  0.7632157532106275  0.1583954429509236
  0.5522113684709011  0.8771594748828430  0.1584098899448651
  0.4534433255166713  0.9354473299971074  0.1584078373927243
  0.6551604482994837  0.7095777042629486  0.1584104387884817
  0.7528728216002258  0.7688220291329201  0.1583518815972338
  0.7515489437649122  0.8805546316046894  0.1583949822857575
  0.6509801668412249  0.9354439215937299  0.1584111337437577
  0.8536721036971431  0.7146929742099927  0.1582765927808302
  0.9525394141541353  0.7701053605635916  0.1582536377395521
  0.8516763113615425  0.9360331682911169  0.1583677220518718
  0.1524200536936611  0.8814270464356114  0.1583109948085659
  0.9520057658096512  0.8814236938525746  0.1583060422540533
  0.4426261711923734  0.3818184492861652  0.1582719015228449
  0.4426355787707266  0.6019659048035843  0.1582703231051331
  0.6617858868577066  0.3818187657834056  0.1584789196044795
  0.6617669529448110  0.6019630164803254  0.1584657031326917
  0.5522029894589541  0.4919048279889025  0.1584404086262924
 
  0.00000000E+00  0.00000000E+00  0.00000000E+00
  0.00000000E+00  0.00000000E+00  0.00000000E+00
  0.00000000E+00  0.00000000E+00  0.00000000E+00
  0.00000000E+00  0.00000000E+00  0.00000000E+00
  0.00000000E+00  0.00000000E+00  0.00000000E+00
  0.00000000E+00  0.00000000E+00  0.00000000E+00
  0.00000000E+00  0.00000000E+00  0.00000000E+00
  0.00000000E+00  0.00000000E+00  0.00000000E+00
  0.00000000E+00  0.00000000E+00  0.00000000E+00
  0.00000000E+00  0.00000000E+00  0.00000000E+00
  0.00000000E+00  0.00000000E+00  0.00000000E+00
  0.00000000E+00  0.00000000E+00  0.00000000E+00
  0.00000000E+00  0.00000000E+00  0.00000000E+00
  0.00000000E+00  0.00000000E+00  0.00000000E+00
  0.00000000E+00  0.00000000E+00  0.00000000E+00
  0.00000000E+00  0.00000000E+00  0.00000000E+00
  0.00000000E+00  0.00000000E+00  0.00000000E+00
  0.00000000E+00  0.00000000E+00  0.00000000E+00
  0.00000000E+00  0.00000000E+00  0.00000000E+00
  0.00000000E+00  0.00000000E+00  0.00000000E+00
  0.00000000E+00  0.00000000E+00  0.00000000E+00
  0.00000000E+00  0.00000000E+00  0.00000000E+00
  0.00000000E+00  0.00000000E+00  0.00000000E+00
  0.00000000E+00  0.00000000E+00  0.00000000E+00
  0.00000000E+00  0.00000000E+00  0.00000000E+00
  0.00000000E+00  0.00000000E+00  0.00000000E+00
  0.00000000E+00  0.00000000E+00  0.00000000E+00
  0.00000000E+00  0.00000000E+00  0.00000000E+00
  0.00000000E+00  0.00000000E+00  0.00000000E+00
  0.00000000E+00  0.00000000E+00  0.00000000E+00
  0.00000000E+00  0.00000000E+00  0.00000000E+00
  0.00000000E+00  0.00000000E+00  0.00000000E+00
  0.00000000E+00  0.00000000E+00  0.00000000E+00
  0.00000000E+00  0.00000000E+00  0.00000000E+00
  0.00000000E+00  0.00000000E+00  0.00000000E+00
  0.00000000E+00  0.00000000E+00  0.00000000E+00
  0.00000000E+00  0.00000000E+00  0.00000000E+00
  0.00000000E+00  0.00000000E+00  0.00000000E+00
  0.00000000E+00  0.00000000E+00  0.00000000E+00
  0.00000000E+00  0.00000000E+00  0.00000000E+00
  0.00000000E+00  0.00000000E+00  0.00000000E+00
  0.00000000E+00  0.00000000E+00  0.00000000E+00
  0.00000000E+00  0.00000000E+00  0.00000000E+00
  0.00000000E+00  0.00000000E+00  0.00000000E+00
  0.00000000E+00  0.00000000E+00  0.00000000E+00
  0.00000000E+00  0.00000000E+00  0.00000000E+00
  0.00000000E+00  0.00000000E+00  0.00000000E+00
  0.00000000E+00  0.00000000E+00  0.00000000E+00
  0.00000000E+00  0.00000000E+00  0.00000000E+00
  0.00000000E+00  0.00000000E+00  0.00000000E+00
  0.00000000E+00  0.00000000E+00  0.00000000E+00
  0.00000000E+00  0.00000000E+00  0.00000000E+00
  0.00000000E+00  0.00000000E+00  0.00000000E+00
  0.00000000E+00  0.00000000E+00  0.00000000E+00
  0.00000000E+00  0.00000000E+00  0.00000000E+00
  0.00000000E+00  0.00000000E+00  0.00000000E+00
  0.00000000E+00  0.00000000E+00  0.00000000E+00
  0.00000000E+00  0.00000000E+00  0.00000000E+00
  0.00000000E+00  0.00000000E+00  0.00000000E+00
