 C  N Fe                                
   1.00000000000000     
     8.4143994775744417    0.0097696781546065    0.0000132262598200
     0.0097551042024664    8.4145815506082577   -0.0000582375633796
     0.0000328437380894   -0.0001379950412925   19.8361919944731611
   C    N    Fe
    21     3     1
Direct
  0.4988664216156317  0.0832173583669215  0.1542934336527222
  0.3523578742215100  0.1656698409435093  0.1542788782464019
  0.6433899264457609  0.1663110219358473  0.1542534874104341
  0.7951973610290575  0.9163355501410203  0.1540147700454037
  0.7940914808710535  0.0836494195019295  0.1540347576012708
  0.9163455490235144  0.2058809076809327  0.1540255611618849
  0.8336558731618701  0.3566049184810631  0.1542245767109426
  0.2044173820116510  0.0841089393146758  0.1540459575683080
  0.0836499941697974  0.2047911792048143  0.1540251485093670
  0.1695691120161993  0.3540504492901234  0.1542478621192034
  0.0888032121534586  0.5010904104734086  0.1542649903180005
  0.1688380752040246  0.6474970346576822  0.1542600423569602
  0.3524883594323220  0.8311578884943183  0.1542767946907269
  0.2037147166252956  0.9155661989121751  0.1540504069135247
  0.0844271423380423  0.7962700797874392  0.1540343709249733
  0.6459538733561896  0.8304319220222648  0.1542368040903430
  0.8343155451574646  0.6476077172937736  0.1542229164528811
  0.9158756353664451  0.7955750936437292  0.1540113772730462
  0.4988827402331917  0.9111866344478441  0.1542877225106060
  0.9167645558876744  0.5011431634214785  0.1542475221434168
  0.6634139363087965  0.3365690745612926  0.1543852878507975
  0.3329914969188970  0.3312735168943644  0.1543968241517482
  0.3321406905894994  0.6678472227782256  0.1544103137139272
  0.6687055689314150  0.6669862357874842  0.1543549047417757
  0.5014930368623686  0.4984911395518459  0.1545282986621204
 
  0.00000000E+00  0.00000000E+00  0.00000000E+00
  0.00000000E+00  0.00000000E+00  0.00000000E+00
  0.00000000E+00  0.00000000E+00  0.00000000E+00
  0.00000000E+00  0.00000000E+00  0.00000000E+00
  0.00000000E+00  0.00000000E+00  0.00000000E+00
  0.00000000E+00  0.00000000E+00  0.00000000E+00
  0.00000000E+00  0.00000000E+00  0.00000000E+00
  0.00000000E+00  0.00000000E+00  0.00000000E+00
  0.00000000E+00  0.00000000E+00  0.00000000E+00
  0.00000000E+00  0.00000000E+00  0.00000000E+00
  0.00000000E+00  0.00000000E+00  0.00000000E+00
  0.00000000E+00  0.00000000E+00  0.00000000E+00
  0.00000000E+00  0.00000000E+00  0.00000000E+00
  0.00000000E+00  0.00000000E+00  0.00000000E+00
  0.00000000E+00  0.00000000E+00  0.00000000E+00
  0.00000000E+00  0.00000000E+00  0.00000000E+00
  0.00000000E+00  0.00000000E+00  0.00000000E+00
  0.00000000E+00  0.00000000E+00  0.00000000E+00
  0.00000000E+00  0.00000000E+00  0.00000000E+00
  0.00000000E+00  0.00000000E+00  0.00000000E+00
  0.00000000E+00  0.00000000E+00  0.00000000E+00
  0.00000000E+00  0.00000000E+00  0.00000000E+00
  0.00000000E+00  0.00000000E+00  0.00000000E+00
  0.00000000E+00  0.00000000E+00  0.00000000E+00
  0.00000000E+00  0.00000000E+00  0.00000000E+00
