 C  N Ti                                
   1.00000000000000     
     8.5401679267433028    0.0000305911169001   -0.0006933449702399
     0.0000313063172314    8.5062701417842259   -0.0000345147829228
    -0.0016040832161671   -0.0000806471953205   19.8374367596761445
   C    N    Ti
    22     2     1
Direct
  0.4970887622871727  0.0849061496090228  0.1542564984724596
  0.3501888987813137  0.1641083057685850  0.1542240399409628
  0.6454589245757877  0.1651521368601902  0.1542156827732934
  0.7974177345132608  0.9175351700074371  0.1540251330500539
  0.7974270803904886  0.0823959534223650  0.1540305590483292
  0.9172635443896302  0.2034655025274780  0.1540033710215418
  0.8385283632841630  0.3527166834140399  0.1541700142132239
  0.2024797585009449  0.0836884914070549  0.1540308237525314
  0.0837052682622768  0.2025147937843622  0.1540005262605107
  0.1662447017643259  0.3510139323071229  0.1541832686499580
  0.0896283834252046  0.4999728434518786  0.1542458157370622
  0.1662425067000776  0.6489399580535429  0.1542050092675982
  0.3501802217857082  0.8358404108117701  0.1542296287120229
  0.2024771584356996  0.9162712218984971  0.1540409679528907
  0.0836970148384023  0.7974428756811957  0.1540208051015224
  0.6454501966814902  0.8347869070733770  0.1541936236340209
  0.8385197906033678  0.6472209690439231  0.1541611808073109
  0.9172538324275654  0.7964724620620903  0.1540093175145560
  0.4970840338222801  0.9150353022366197  0.1542484440588681
  0.9193877597236354  0.4999720986928656  0.1542084975524293
  0.6698265965250270  0.3301152553523525  0.1543396635728068
  0.6698183059185393  0.6698224790969438  0.1543046550764326
  0.3272230760080732  0.3268561527231660  0.1543298557279529
  0.3272154276785091  0.6730930347074421  0.1543455411886865
  0.5005422186081655  0.4999738275948483  0.1553900867337682
 
  0.00000000E+00  0.00000000E+00  0.00000000E+00
  0.00000000E+00  0.00000000E+00  0.00000000E+00
  0.00000000E+00  0.00000000E+00  0.00000000E+00
  0.00000000E+00  0.00000000E+00  0.00000000E+00
  0.00000000E+00  0.00000000E+00  0.00000000E+00
  0.00000000E+00  0.00000000E+00  0.00000000E+00
  0.00000000E+00  0.00000000E+00  0.00000000E+00
  0.00000000E+00  0.00000000E+00  0.00000000E+00
  0.00000000E+00  0.00000000E+00  0.00000000E+00
  0.00000000E+00  0.00000000E+00  0.00000000E+00
  0.00000000E+00  0.00000000E+00  0.00000000E+00
  0.00000000E+00  0.00000000E+00  0.00000000E+00
  0.00000000E+00  0.00000000E+00  0.00000000E+00
  0.00000000E+00  0.00000000E+00  0.00000000E+00
  0.00000000E+00  0.00000000E+00  0.00000000E+00
  0.00000000E+00  0.00000000E+00  0.00000000E+00
  0.00000000E+00  0.00000000E+00  0.00000000E+00
  0.00000000E+00  0.00000000E+00  0.00000000E+00
  0.00000000E+00  0.00000000E+00  0.00000000E+00
  0.00000000E+00  0.00000000E+00  0.00000000E+00
  0.00000000E+00  0.00000000E+00  0.00000000E+00
  0.00000000E+00  0.00000000E+00  0.00000000E+00
  0.00000000E+00  0.00000000E+00  0.00000000E+00
  0.00000000E+00  0.00000000E+00  0.00000000E+00
  0.00000000E+00  0.00000000E+00  0.00000000E+00
