 C  N Ni                                
   1.00000000000000     
    12.4915592126024002    0.0000000000000000    0.0000000000000000
    -0.0000000000000004   12.7669312736442269    0.0000000000000000
     0.0000000000000003    0.0000000000000000   19.8713392819153718
   C    N    Ni
    56     2     1
Direct
  0.0521300448738424  0.0474344946099218  0.1593997396566312
  0.1522917171280252  0.1021238170133466  0.1593709618934231
  0.1518411657488118  0.2132469386263804  0.1592884154894855
  0.0521100943867653  0.2684544517061322  0.1592370034097266
  0.2532097509671318  0.0476603427506908  0.1594042829638745
  0.3531994998074685  0.1038819865319430  0.1594237592278303
  0.3525892070182284  0.2164030319958149  0.1593635977515913
  0.2511862248524507  0.2687782418918591  0.1592819091813004
  0.4532532151953065  0.0483373517204256  0.1594568128250632
  0.5529443524849942  0.1072211914642830  0.1594631866755787
  0.5528582223259821  0.2200094739207544  0.1594380342377381
  0.4515251254333951  0.2763150343249816  0.1593992103898337
  0.6519094853181191  0.0482532766169358  0.1594642736956372
  0.7516466099909973  0.1035682685355715  0.1594127982052001
  0.7527162364613461  0.2161008571572258  0.1593754883959544
  0.6549166809744953  0.2761164181704844  0.1594023170542549
  0.8515349734345490  0.0476823129032877  0.1593954719592859
  0.9520519999089174  0.1022187321594237  0.1593743181057380
  0.9527514909032905  0.2133723438696297  0.1593047187951120
  0.8533450870130551  0.2691370590722444  0.1593058550276274
  0.0513872272956415  0.3803805238426857  0.1591896860166124
  0.1494608560984627  0.4360141945829039  0.1591822357403874
  0.1494725502115917  0.5477398384449726  0.1591940148623247
  0.0513916372426587  0.6033723861442847  0.1592134465836920
  0.2479438122669245  0.3798133746236291  0.1592263217637915
  0.3446978916963373  0.4357038684128253  0.1592664854482836
  0.3446956100868650  0.5480717459745897  0.1592776440371455
  0.2479501689036882  0.6039685174128694  0.1592422102968718
  0.7561369280607582  0.4347314569302680  0.1593026107010742
  0.7561279415986801  0.5489742040051929  0.1593041470571995
  0.8547181889039126  0.3804788590338584  0.1592574191397851
  0.9533075447708476  0.4362731279046396  0.1591810172248060
  0.9532999866241824  0.5474927987251108  0.1591888311599320
  0.8547087609369055  0.6032547542517839  0.1592734030528984
  0.0521130637264410  0.7152914047080148  0.1592650484322518
  0.1518467341989595  0.7705090913841910  0.1593088678120765
  0.0521336697638150  0.9363170016894957  0.1594062860288130
  0.2511832199848595  0.7149818852879030  0.1593132226295373
  0.3525886877102201  0.7673519767618657  0.1593798625666586
  0.3531866378609957  0.8798730192997271  0.1594159437439859
  0.2532000946574814  0.9360900741993592  0.1594075872465660
  0.4515244022403382  0.7074507632482816  0.1593809614473512
  0.5528689268499948  0.7637554450798296  0.1594257912217940
  0.5529653152344962  0.8765387677488240  0.1594575133385777
  0.4532517048234714  0.9353924805672457  0.1594402562454769
  0.6549370855906579  0.7076236577376218  0.1594009834784749
  0.7527321547124293  0.7676270195023739  0.1593870995585015
  0.7516771136608864  0.8801622006286174  0.1594303726811897
  0.6519442577762214  0.9354849614598783  0.1594657825629562
  0.8533549468086465  0.7145972454270300  0.1593271240858488
  0.9527477228806089  0.7703607901954951  0.1593181871254749
  0.8515571005221707  0.9360365858925646  0.1594114622145234
  0.1522796353720071  0.8816247256492523  0.1593741794798929
  0.9520780871061288  0.8815093184573304  0.1593796117055106
  0.4462425871898229  0.3879975048552622  0.1593482402341932
  0.4462419519442785  0.5957870502104321  0.1593421756979322
  0.6599396760108405  0.3843094114129673  0.1593773553289780
  0.6599429203106345  0.5994329317618199  0.1593740889773003
  0.5523321041284411  0.4918894076205825  0.1593804276023626
 
  0.00000000E+00  0.00000000E+00  0.00000000E+00
  0.00000000E+00  0.00000000E+00  0.00000000E+00
  0.00000000E+00  0.00000000E+00  0.00000000E+00
  0.00000000E+00  0.00000000E+00  0.00000000E+00
  0.00000000E+00  0.00000000E+00  0.00000000E+00
  0.00000000E+00  0.00000000E+00  0.00000000E+00
  0.00000000E+00  0.00000000E+00  0.00000000E+00
  0.00000000E+00  0.00000000E+00  0.00000000E+00
  0.00000000E+00  0.00000000E+00  0.00000000E+00
  0.00000000E+00  0.00000000E+00  0.00000000E+00
  0.00000000E+00  0.00000000E+00  0.00000000E+00
  0.00000000E+00  0.00000000E+00  0.00000000E+00
  0.00000000E+00  0.00000000E+00  0.00000000E+00
  0.00000000E+00  0.00000000E+00  0.00000000E+00
  0.00000000E+00  0.00000000E+00  0.00000000E+00
  0.00000000E+00  0.00000000E+00  0.00000000E+00
  0.00000000E+00  0.00000000E+00  0.00000000E+00
  0.00000000E+00  0.00000000E+00  0.00000000E+00
  0.00000000E+00  0.00000000E+00  0.00000000E+00
  0.00000000E+00  0.00000000E+00  0.00000000E+00
  0.00000000E+00  0.00000000E+00  0.00000000E+00
  0.00000000E+00  0.00000000E+00  0.00000000E+00
  0.00000000E+00  0.00000000E+00  0.00000000E+00
  0.00000000E+00  0.00000000E+00  0.00000000E+00
  0.00000000E+00  0.00000000E+00  0.00000000E+00
  0.00000000E+00  0.00000000E+00  0.00000000E+00
  0.00000000E+00  0.00000000E+00  0.00000000E+00
  0.00000000E+00  0.00000000E+00  0.00000000E+00
  0.00000000E+00  0.00000000E+00  0.00000000E+00
  0.00000000E+00  0.00000000E+00  0.00000000E+00
  0.00000000E+00  0.00000000E+00  0.00000000E+00
  0.00000000E+00  0.00000000E+00  0.00000000E+00
  0.00000000E+00  0.00000000E+00  0.00000000E+00
  0.00000000E+00  0.00000000E+00  0.00000000E+00
  0.00000000E+00  0.00000000E+00  0.00000000E+00
  0.00000000E+00  0.00000000E+00  0.00000000E+00
  0.00000000E+00  0.00000000E+00  0.00000000E+00
  0.00000000E+00  0.00000000E+00  0.00000000E+00
  0.00000000E+00  0.00000000E+00  0.00000000E+00
  0.00000000E+00  0.00000000E+00  0.00000000E+00
  0.00000000E+00  0.00000000E+00  0.00000000E+00
  0.00000000E+00  0.00000000E+00  0.00000000E+00
  0.00000000E+00  0.00000000E+00  0.00000000E+00
  0.00000000E+00  0.00000000E+00  0.00000000E+00
  0.00000000E+00  0.00000000E+00  0.00000000E+00
  0.00000000E+00  0.00000000E+00  0.00000000E+00
  0.00000000E+00  0.00000000E+00  0.00000000E+00
  0.00000000E+00  0.00000000E+00  0.00000000E+00
  0.00000000E+00  0.00000000E+00  0.00000000E+00
  0.00000000E+00  0.00000000E+00  0.00000000E+00
  0.00000000E+00  0.00000000E+00  0.00000000E+00
  0.00000000E+00  0.00000000E+00  0.00000000E+00
  0.00000000E+00  0.00000000E+00  0.00000000E+00
  0.00000000E+00  0.00000000E+00  0.00000000E+00
  0.00000000E+00  0.00000000E+00  0.00000000E+00
  0.00000000E+00  0.00000000E+00  0.00000000E+00
  0.00000000E+00  0.00000000E+00  0.00000000E+00
  0.00000000E+00  0.00000000E+00  0.00000000E+00
  0.00000000E+00  0.00000000E+00  0.00000000E+00
