 C  N Cu                                
   1.00000000000000     
    12.4859333603319254    0.0000000000000000    0.0000000000000000
    -0.0000000000000004   12.7608121993293224    0.0000000000000000
     0.0000000000000003    0.0000000000000000   20.0000000000000000
   C    N    Cu
    54     4     1
Direct
  0.0522032996644635  0.0473673284486174  0.1583171497914961
  0.1525532869929641  0.1022780508793157  0.1583132333879152
  0.1518909703694871  0.2136054107101273  0.1582649395905475
  0.0521971213145953  0.2688148253633998  0.1582217340502671
  0.2531413441519585  0.0478269424508346  0.1583666856049517
  0.3532703995572855  0.1037112160023323  0.1584018709883843
  0.3519553533220042  0.2158571121330670  0.1583692021067090
  0.2510088848027895  0.2692106654097726  0.1582990645466442
  0.4536713514265747  0.0485079721640559  0.1584279320002477
  0.5522102874615377  0.1073378746908042  0.1584452701159861
  0.5522070380844301  0.2217803406116402  0.1584310622172421
  0.4499592596602039  0.2763572751582415  0.1583995286802014
  0.6507495361495398  0.0484986416909629  0.1584328936110118
  0.7511396005157275  0.1037048734857209  0.1584133136561799
  0.7524479874514645  0.2158518414489745  0.1583742053053099
  0.6544510265766420  0.2763562598705373  0.1584062041032711
  0.8512616187583341  0.0478212989015865  0.1583868568708208
  0.9518486485192421  0.1022729267491526  0.1583159377376016
  0.9525075096526281  0.2136026009736404  0.1582587426637064
  0.8533875979015740  0.2692116595248125  0.1582896166954866
  0.0522000319499205  0.3801551481299765  0.1581686410601299
  0.1503198880706886  0.4363016037400778  0.1581590780501018
  0.1503292166088708  0.5474460061263615  0.1581462994184502
  0.0522073110367290  0.6035949258023650  0.1581456262900694
  0.2489372403696232  0.3806609215997138  0.1582468635606185
  0.3468382861419845  0.4354906325779609  0.1582784485413852
  0.3468537372821492  0.5482528609980177  0.1582778493698929
  0.2489394335017421  0.6030781323500779  0.1582240156861169
  0.7575632282443056  0.4354950778553625  0.1582931770268918
  0.7575554087058392  0.5482546498271884  0.1582940482053524
  0.8554671997551431  0.3806612412579736  0.1582493604459483
  0.9540848131636591  0.4363064368667619  0.1581607442555296
  0.9540779227933938  0.5474542174931585  0.1581438487580173
  0.8554686087979123  0.6030865543435139  0.1582281014964125
  0.0522175981565638  0.7149389369698148  0.1582160472005607
  0.1519149982974555  0.7701463392950756  0.1582650041287440
  0.0522121753104186  0.9363689357299965  0.1583107786794161
  0.2510198250842908  0.7145283785339589  0.1582836195664193
  0.3519527083724852  0.7679014825277608  0.1583490503037769
  0.3532750887778125  0.8800428045388499  0.1583977213721842
  0.2531413056374913  0.9359222897317919  0.1583589783816348
  0.4499569715890664  0.7074112505786695  0.1583783079803290
  0.5522177812863746  0.7619972501897178  0.1583908612241543
  0.5522196642005032  0.8764235186527207  0.1584097069846728
  0.4536834808510835  0.9352145110653898  0.1584217937127107
  0.6544646037943841  0.7074023701577435  0.1583798645006806
  0.7524658037776918  0.7678936103108921  0.1583499244704120
  0.7511484999117672  0.8800336407340050  0.1583973596750067
  0.6507507714459895  0.9352093119335578  0.1584189192398425
  0.8534013565772475  0.7145323470816117  0.1582752851253689
  0.9525111325911966  0.7701458024641896  0.1582513018339265
  0.8512734825100117  0.9359130748973563  0.1583722049693937
  0.1525608391542830  0.8814636279652386  0.1583051086859506
  0.9518663337371274  0.8814628341818622  0.1583073138639712
  0.4431557363667149  0.3838410438297862  0.1583670505914059
  0.4431554962618360  0.5999260088470701  0.1583722513236477
  0.6612522411815102  0.3838399487359755  0.1583788191128415
  0.6612544812549598  0.5999224364604028  0.1583775911073011
  0.5522032651058039  0.4918847150673699  0.1584142340767380
 
  0.00000000E+00  0.00000000E+00  0.00000000E+00
  0.00000000E+00  0.00000000E+00  0.00000000E+00
  0.00000000E+00  0.00000000E+00  0.00000000E+00
  0.00000000E+00  0.00000000E+00  0.00000000E+00
  0.00000000E+00  0.00000000E+00  0.00000000E+00
  0.00000000E+00  0.00000000E+00  0.00000000E+00
  0.00000000E+00  0.00000000E+00  0.00000000E+00
  0.00000000E+00  0.00000000E+00  0.00000000E+00
  0.00000000E+00  0.00000000E+00  0.00000000E+00
  0.00000000E+00  0.00000000E+00  0.00000000E+00
  0.00000000E+00  0.00000000E+00  0.00000000E+00
  0.00000000E+00  0.00000000E+00  0.00000000E+00
  0.00000000E+00  0.00000000E+00  0.00000000E+00
  0.00000000E+00  0.00000000E+00  0.00000000E+00
  0.00000000E+00  0.00000000E+00  0.00000000E+00
  0.00000000E+00  0.00000000E+00  0.00000000E+00
  0.00000000E+00  0.00000000E+00  0.00000000E+00
  0.00000000E+00  0.00000000E+00  0.00000000E+00
  0.00000000E+00  0.00000000E+00  0.00000000E+00
  0.00000000E+00  0.00000000E+00  0.00000000E+00
  0.00000000E+00  0.00000000E+00  0.00000000E+00
  0.00000000E+00  0.00000000E+00  0.00000000E+00
  0.00000000E+00  0.00000000E+00  0.00000000E+00
  0.00000000E+00  0.00000000E+00  0.00000000E+00
  0.00000000E+00  0.00000000E+00  0.00000000E+00
  0.00000000E+00  0.00000000E+00  0.00000000E+00
  0.00000000E+00  0.00000000E+00  0.00000000E+00
  0.00000000E+00  0.00000000E+00  0.00000000E+00
  0.00000000E+00  0.00000000E+00  0.00000000E+00
  0.00000000E+00  0.00000000E+00  0.00000000E+00
  0.00000000E+00  0.00000000E+00  0.00000000E+00
  0.00000000E+00  0.00000000E+00  0.00000000E+00
  0.00000000E+00  0.00000000E+00  0.00000000E+00
  0.00000000E+00  0.00000000E+00  0.00000000E+00
  0.00000000E+00  0.00000000E+00  0.00000000E+00
  0.00000000E+00  0.00000000E+00  0.00000000E+00
  0.00000000E+00  0.00000000E+00  0.00000000E+00
  0.00000000E+00  0.00000000E+00  0.00000000E+00
  0.00000000E+00  0.00000000E+00  0.00000000E+00
  0.00000000E+00  0.00000000E+00  0.00000000E+00
  0.00000000E+00  0.00000000E+00  0.00000000E+00
  0.00000000E+00  0.00000000E+00  0.00000000E+00
  0.00000000E+00  0.00000000E+00  0.00000000E+00
  0.00000000E+00  0.00000000E+00  0.00000000E+00
  0.00000000E+00  0.00000000E+00  0.00000000E+00
  0.00000000E+00  0.00000000E+00  0.00000000E+00
  0.00000000E+00  0.00000000E+00  0.00000000E+00
  0.00000000E+00  0.00000000E+00  0.00000000E+00
  0.00000000E+00  0.00000000E+00  0.00000000E+00
  0.00000000E+00  0.00000000E+00  0.00000000E+00
  0.00000000E+00  0.00000000E+00  0.00000000E+00
  0.00000000E+00  0.00000000E+00  0.00000000E+00
  0.00000000E+00  0.00000000E+00  0.00000000E+00
  0.00000000E+00  0.00000000E+00  0.00000000E+00
  0.00000000E+00  0.00000000E+00  0.00000000E+00
  0.00000000E+00  0.00000000E+00  0.00000000E+00
  0.00000000E+00  0.00000000E+00  0.00000000E+00
  0.00000000E+00  0.00000000E+00  0.00000000E+00
  0.00000000E+00  0.00000000E+00  0.00000000E+00
