 C  N Cu                                
   1.00000000000000     
    12.4919955848487412    0.0000000000000000    0.0000000000000000
    -0.0000000000000004   12.7789807664144845    0.0000000000000000
     0.0000000000000003    0.0000000000000000   19.8713392819153718
   C    N    Cu
    56     2     1
Direct
  0.0524765376952828  0.0472994473851480  0.1594089068925508
  0.1524991399267073  0.1019983303291768  0.1593829194302306
  0.1517508634404861  0.2130188093078922  0.1592907680643718
  0.0520020662698639  0.2684921323035274  0.1592435561325622
  0.2533107463661958  0.0476615381708216  0.1594176372843733
  0.3532709806634007  0.1034863794180833  0.1594339422670107
  0.3521678154924611  0.2158124062042041  0.1593792717090047
  0.2508573435260329  0.2683316991691818  0.1592886867824199
  0.4531945501154713  0.0476645699396446  0.1594386422907464
  0.5516350516275200  0.1064383353336933  0.1594428095609310
  0.5512108492722658  0.2194111176102790  0.1594394047434626
  0.4505765326231464  0.2757159976762831  0.1593906583056737
  0.6513053314409625  0.0486353103032448  0.1594345435885021
  0.7515419315222157  0.1039079888464870  0.1593890249351423
  0.7523113307535058  0.2158407462227321  0.1593685764649238
  0.6527493240727522  0.2751357657287181  0.1593961544408354
  0.8515299647736588  0.0477232517660050  0.1593830195194627
  0.9520313472963987  0.1024207394455212  0.1593687339572656
  0.9524627547941160  0.2135801144024599  0.1593033594349850
  0.8528078654516519  0.2694969858777294  0.1593094342439302
  0.0522268218924416  0.3802230018947996  0.1592084766322721
  0.1502898059686227  0.4360941601491450  0.1592000629423518
  0.1499603381799262  0.5474915151065213  0.1591950886244655
  0.0518124268472372  0.6035315604377670  0.1592267573310927
  0.2489636776152815  0.3795528660495268  0.1592433257213061
  0.3462537266986948  0.4343916802176165  0.1592893007754428
  0.3463605696605679  0.5465695459268615  0.1592844940614040
  0.2487117286782843  0.6028401194899803  0.1592526569921545
  0.7576943480489229  0.4371779522343182  0.1592886050150235
  0.7577665185740108  0.5493790617338236  0.1593008903150648
  0.8553511109906807  0.3808857779425990  0.1592564513738953
  0.9540612336754467  0.4362724342924372  0.1592021161750935
  0.9536921964363018  0.5476712291028366  0.1592075377771266
  0.8550745686409194  0.6042333653390428  0.1592756306964549
  0.0523500318128304  0.7152547447177685  0.1592710795700504
  0.1519996671945807  0.7701641994296149  0.1592991050032730
  0.0523396582869732  0.9364553500378677  0.1594143448778294
  0.2515794990482665  0.7142152482677115  0.1593060098900927
  0.3521594818610098  0.7678501449624378  0.1593711227393844
  0.3531850509082888  0.8797926206982405  0.1594078259648440
  0.2532041790629320  0.9359718396832616  0.1594096537610228
  0.4516612052578363  0.7085678381292534  0.1593889899154676
  0.5532632748216083  0.7643680871039382  0.1594273366243129
  0.5530962320782088  0.8773383365727839  0.1594278407273507
  0.4534679917302188  0.9350985815945778  0.1594334062237936
  0.6538080047117896  0.7081208272015216  0.1593914710510914
  0.7523083025449986  0.7679738461709015  0.1593763570100958
  0.7514854140111095  0.8802838412397213  0.1594186155025095
  0.6515930836959947  0.9360785579571446  0.1594314900105858
  0.8535225689432917  0.7154250566460889  0.1593148010568985
  0.9526949225826737  0.7707127089290379  0.1593309227257537
  0.8514617251888354  0.9360898893111644  0.1594042793698508
  0.1526795964286677  0.8813072925556443  0.1593757510165765
  0.9522483843760094  0.8817415134729455  0.1593844895548308
  0.4452710367306344  0.5988789007090540  0.1593618502175619
  0.6588021009073155  0.3848464585225727  0.1593615271428314
  0.4442636598466654  0.3844878912515799  0.1593637542071363
  0.6598047421260815  0.5993092408468407  0.1593693593342131
  0.5520188766909025  0.4918610449387322  0.1593972309897653
 
  0.00000000E+00  0.00000000E+00  0.00000000E+00
  0.00000000E+00  0.00000000E+00  0.00000000E+00
  0.00000000E+00  0.00000000E+00  0.00000000E+00
  0.00000000E+00  0.00000000E+00  0.00000000E+00
  0.00000000E+00  0.00000000E+00  0.00000000E+00
  0.00000000E+00  0.00000000E+00  0.00000000E+00
  0.00000000E+00  0.00000000E+00  0.00000000E+00
  0.00000000E+00  0.00000000E+00  0.00000000E+00
  0.00000000E+00  0.00000000E+00  0.00000000E+00
  0.00000000E+00  0.00000000E+00  0.00000000E+00
  0.00000000E+00  0.00000000E+00  0.00000000E+00
  0.00000000E+00  0.00000000E+00  0.00000000E+00
  0.00000000E+00  0.00000000E+00  0.00000000E+00
  0.00000000E+00  0.00000000E+00  0.00000000E+00
  0.00000000E+00  0.00000000E+00  0.00000000E+00
  0.00000000E+00  0.00000000E+00  0.00000000E+00
  0.00000000E+00  0.00000000E+00  0.00000000E+00
  0.00000000E+00  0.00000000E+00  0.00000000E+00
  0.00000000E+00  0.00000000E+00  0.00000000E+00
  0.00000000E+00  0.00000000E+00  0.00000000E+00
  0.00000000E+00  0.00000000E+00  0.00000000E+00
  0.00000000E+00  0.00000000E+00  0.00000000E+00
  0.00000000E+00  0.00000000E+00  0.00000000E+00
  0.00000000E+00  0.00000000E+00  0.00000000E+00
  0.00000000E+00  0.00000000E+00  0.00000000E+00
  0.00000000E+00  0.00000000E+00  0.00000000E+00
  0.00000000E+00  0.00000000E+00  0.00000000E+00
  0.00000000E+00  0.00000000E+00  0.00000000E+00
  0.00000000E+00  0.00000000E+00  0.00000000E+00
  0.00000000E+00  0.00000000E+00  0.00000000E+00
  0.00000000E+00  0.00000000E+00  0.00000000E+00
  0.00000000E+00  0.00000000E+00  0.00000000E+00
  0.00000000E+00  0.00000000E+00  0.00000000E+00
  0.00000000E+00  0.00000000E+00  0.00000000E+00
  0.00000000E+00  0.00000000E+00  0.00000000E+00
  0.00000000E+00  0.00000000E+00  0.00000000E+00
  0.00000000E+00  0.00000000E+00  0.00000000E+00
  0.00000000E+00  0.00000000E+00  0.00000000E+00
  0.00000000E+00  0.00000000E+00  0.00000000E+00
  0.00000000E+00  0.00000000E+00  0.00000000E+00
  0.00000000E+00  0.00000000E+00  0.00000000E+00
  0.00000000E+00  0.00000000E+00  0.00000000E+00
  0.00000000E+00  0.00000000E+00  0.00000000E+00
  0.00000000E+00  0.00000000E+00  0.00000000E+00
  0.00000000E+00  0.00000000E+00  0.00000000E+00
  0.00000000E+00  0.00000000E+00  0.00000000E+00
  0.00000000E+00  0.00000000E+00  0.00000000E+00
  0.00000000E+00  0.00000000E+00  0.00000000E+00
  0.00000000E+00  0.00000000E+00  0.00000000E+00
  0.00000000E+00  0.00000000E+00  0.00000000E+00
  0.00000000E+00  0.00000000E+00  0.00000000E+00
  0.00000000E+00  0.00000000E+00  0.00000000E+00
  0.00000000E+00  0.00000000E+00  0.00000000E+00
  0.00000000E+00  0.00000000E+00  0.00000000E+00
  0.00000000E+00  0.00000000E+00  0.00000000E+00
  0.00000000E+00  0.00000000E+00  0.00000000E+00
  0.00000000E+00  0.00000000E+00  0.00000000E+00
  0.00000000E+00  0.00000000E+00  0.00000000E+00
  0.00000000E+00  0.00000000E+00  0.00000000E+00
