 C  N Cr                                
   1.00000000000000     
    12.4918259100791698    0.0000000000000000    0.0000000000000000
    -0.0000000000000004   12.7711110357618480    0.0000000000000000
     0.0000000000000003    0.0000000000000000   20.0000000000000000
   C    N    Cr
    54     4     1
Direct
  0.0522058456063782  0.0474330732965014  0.1583208566956620
  0.1525285918922171  0.1022811687894536  0.1583140698683097
  0.1519766952817222  0.2136499468841905  0.1582659567228377
  0.0522157200657756  0.2688610786689793  0.1582237315519001
  0.2531003708473781  0.0478153819928257  0.1583697286693120
  0.3532410529387628  0.1035907569293488  0.1584021384930351
  0.3521083599678836  0.2157938007438933  0.1583674299838237
  0.2509335112725027  0.2692026964536933  0.1582915952248604
  0.4535504869587915  0.0484633335058893  0.1584259406284311
  0.5522127318725223  0.1069177741300510  0.1584335585971671
  0.5522114686806697  0.2212281408942051  0.1584165798834784
  0.4498952281860344  0.2753678732943471  0.1583906847618952
  0.6508580667868392  0.0484570677656879  0.1584319930301619
  0.7511852435185138  0.1035661341292479  0.1584107915212956
  0.7523531417528968  0.2157548048552700  0.1583710421900560
  0.6546013208689757  0.2753571896393406  0.1583996810995710
  0.8513048811147312  0.0477899381000179  0.1583831840380578
  0.9518827800021479  0.1022688155974526  0.1583118481451725
  0.9524736965205097  0.2136325011450318  0.1582593971646028
  0.8535192103277444  0.2691714061846645  0.1582833407856755
  0.0522247172363772  0.3800470402537328  0.1581685780933524
  0.1501801214770098  0.4363968518820386  0.1581573611234869
  0.1501490599086700  0.5473700648411054  0.1581486655788018
  0.0521951287296354  0.6037083823421000  0.1581524297490327
  0.2488901872791585  0.3806976212168677  0.1582463340650004
  0.3460524185827874  0.4359729001180344  0.1582955223656831
  0.3460193050025036  0.5478464996695868  0.1582974162334272
  0.2488408066869505  0.6030883700403415  0.1582281334568017
  0.7583993987024854  0.4358948638188581  0.1583126956667243
  0.7583502602991946  0.5477642116301676  0.1582938720895353
  0.8555841303399686  0.3806514415887370  0.1582524249017600
  0.9542682428463177  0.4363856386819379  0.1581673061185311
  0.9542280461608417  0.5473632123476100  0.1581532000973626
  0.8555042130068014  0.6030414406463570  0.1582308862192658
  0.0522041302865582  0.7148843122191170  0.1582244827035031
  0.1519566281928182  0.7701088044868651  0.1582691489674341
  0.0522102994733846  0.9362849277057218  0.1583123338270605
  0.2508903329214361  0.7145708053478674  0.1582827233048836
  0.3520522313423654  0.7680074429600102  0.1583503082346903
  0.3532289932241837  0.8801794687205895  0.1583971397889013
  0.2530944233942296  0.9359388754018406  0.1583621622832572
  0.4498137663242302  0.7084331104109675  0.1583705038341555
  0.5522047468116339  0.7625648381617940  0.1583927735004764
  0.5522106773687365  0.8768621751555146  0.1583950065105262
  0.4535694256934578  0.9352554533459302  0.1584136352616773
  0.6545189255415542  0.7084168643000074  0.1583700345862308
  0.7523053770519254  0.7679651864519260  0.1583457770237246
  0.7511698165219770  0.8801481153348887  0.1583954177735806
  0.6508636810986790  0.9352499080445240  0.1584129914368554
  0.8534735393449940  0.7145425407728380  0.1582756971296917
  0.9524197881557619  0.7700886920152455  0.1582594320151013
  0.8513095455237566  0.9359154286047162  0.1583705711577315
  0.1525256465389151  0.8814532759195033  0.1583078262532900
  0.9518873912249353  0.8814468130328459  0.1583059999702324
  0.4441059547335004  0.3839360143905806  0.1583701026125973
  0.4440066416921593  0.5999473230925044  0.1583700099003589
  0.6604105195167833  0.3838261501941620  0.1583819472120693
  0.6602981498513849  0.5998320858021879  0.1583717418768580
  0.5522050174384178  0.4918899621672008  0.1584145020210289
 
  0.00000000E+00  0.00000000E+00  0.00000000E+00
  0.00000000E+00  0.00000000E+00  0.00000000E+00
  0.00000000E+00  0.00000000E+00  0.00000000E+00
  0.00000000E+00  0.00000000E+00  0.00000000E+00
  0.00000000E+00  0.00000000E+00  0.00000000E+00
  0.00000000E+00  0.00000000E+00  0.00000000E+00
  0.00000000E+00  0.00000000E+00  0.00000000E+00
  0.00000000E+00  0.00000000E+00  0.00000000E+00
  0.00000000E+00  0.00000000E+00  0.00000000E+00
  0.00000000E+00  0.00000000E+00  0.00000000E+00
  0.00000000E+00  0.00000000E+00  0.00000000E+00
  0.00000000E+00  0.00000000E+00  0.00000000E+00
  0.00000000E+00  0.00000000E+00  0.00000000E+00
  0.00000000E+00  0.00000000E+00  0.00000000E+00
  0.00000000E+00  0.00000000E+00  0.00000000E+00
  0.00000000E+00  0.00000000E+00  0.00000000E+00
  0.00000000E+00  0.00000000E+00  0.00000000E+00
  0.00000000E+00  0.00000000E+00  0.00000000E+00
  0.00000000E+00  0.00000000E+00  0.00000000E+00
  0.00000000E+00  0.00000000E+00  0.00000000E+00
  0.00000000E+00  0.00000000E+00  0.00000000E+00
  0.00000000E+00  0.00000000E+00  0.00000000E+00
  0.00000000E+00  0.00000000E+00  0.00000000E+00
  0.00000000E+00  0.00000000E+00  0.00000000E+00
  0.00000000E+00  0.00000000E+00  0.00000000E+00
  0.00000000E+00  0.00000000E+00  0.00000000E+00
  0.00000000E+00  0.00000000E+00  0.00000000E+00
  0.00000000E+00  0.00000000E+00  0.00000000E+00
  0.00000000E+00  0.00000000E+00  0.00000000E+00
  0.00000000E+00  0.00000000E+00  0.00000000E+00
  0.00000000E+00  0.00000000E+00  0.00000000E+00
  0.00000000E+00  0.00000000E+00  0.00000000E+00
  0.00000000E+00  0.00000000E+00  0.00000000E+00
  0.00000000E+00  0.00000000E+00  0.00000000E+00
  0.00000000E+00  0.00000000E+00  0.00000000E+00
  0.00000000E+00  0.00000000E+00  0.00000000E+00
  0.00000000E+00  0.00000000E+00  0.00000000E+00
  0.00000000E+00  0.00000000E+00  0.00000000E+00
  0.00000000E+00  0.00000000E+00  0.00000000E+00
  0.00000000E+00  0.00000000E+00  0.00000000E+00
  0.00000000E+00  0.00000000E+00  0.00000000E+00
  0.00000000E+00  0.00000000E+00  0.00000000E+00
  0.00000000E+00  0.00000000E+00  0.00000000E+00
  0.00000000E+00  0.00000000E+00  0.00000000E+00
  0.00000000E+00  0.00000000E+00  0.00000000E+00
  0.00000000E+00  0.00000000E+00  0.00000000E+00
  0.00000000E+00  0.00000000E+00  0.00000000E+00
  0.00000000E+00  0.00000000E+00  0.00000000E+00
  0.00000000E+00  0.00000000E+00  0.00000000E+00
  0.00000000E+00  0.00000000E+00  0.00000000E+00
  0.00000000E+00  0.00000000E+00  0.00000000E+00
  0.00000000E+00  0.00000000E+00  0.00000000E+00
  0.00000000E+00  0.00000000E+00  0.00000000E+00
  0.00000000E+00  0.00000000E+00  0.00000000E+00
  0.00000000E+00  0.00000000E+00  0.00000000E+00
  0.00000000E+00  0.00000000E+00  0.00000000E+00
  0.00000000E+00  0.00000000E+00  0.00000000E+00
  0.00000000E+00  0.00000000E+00  0.00000000E+00
  0.00000000E+00  0.00000000E+00  0.00000000E+00
