 C  N Co                                
   1.00000000000000     
     8.4504675538864564    0.0000000000000001    0.0000000000000000
    -0.0000000000000001    8.4504119873130925    0.0000000000000000
    -0.0000000000000002    0.0000000000000000   19.8713392818999957
   C    N    Co
    23     1     1
Direct
  0.5007296253242407  0.0815800162850540  0.1542924555121566
  0.3561205358320428  0.1662815186298422  0.1542755839624506
  0.6452851449061520  0.1649242138887639  0.1541999265023092
  0.7966235041419790  0.9176761506860550  0.1540468918391926
  0.7943497923128076  0.0832795998037156  0.1540273702352288
  0.9173157408821823  0.2068210650788854  0.1540076295343668
  0.8311648994611863  0.3556764713654584  0.1541566513501358
  0.2062502394572728  0.0825607353437367  0.1540626854925750
  0.0825992293436094  0.2062103202553819  0.1540352517352247
  0.1663305273845097  0.3560714953966630  0.1542430338952255
  0.0816203488123910  0.5006860410261765  0.1542578442192813
  0.1649686104831637  0.6452471936008072  0.1542086165936103
  0.3557138778108426  0.8311270579384983  0.1542224608001890
  0.2068642633746753  0.9172660948340089  0.1540562193585086
  0.0833236957895028  0.7943030435885002  0.1540472071143593
  0.6484490975788756  0.8318049609705704  0.1542271015675043
  0.8318402447819595  0.6484076786536417  0.1542083868593003
  0.9177162694236527  0.7965806135535738  0.1540428351741331
  0.5007415307432258  0.9120792081523502  0.1542818336884698
  0.9121185840174107  0.5006989173720561  0.1542314098518665
  0.6608698880685214  0.3345692812818450  0.1542983159066842
  0.3379079592961185  0.3378677781350976  0.1544520751758877
  0.3345981930420791  0.6608318430496596  0.1543351006237483
  0.6697504360172399  0.6697047284026255  0.1543357216372922
  0.4970973216454685  0.4970568902952041  0.1548604011910928
 
  0.00000000E+00  0.00000000E+00  0.00000000E+00
  0.00000000E+00  0.00000000E+00  0.00000000E+00
  0.00000000E+00  0.00000000E+00  0.00000000E+00
  0.00000000E+00  0.00000000E+00  0.00000000E+00
  0.00000000E+00  0.00000000E+00  0.00000000E+00
  0.00000000E+00  0.00000000E+00  0.00000000E+00
  0.00000000E+00  0.00000000E+00  0.00000000E+00
  0.00000000E+00  0.00000000E+00  0.00000000E+00
  0.00000000E+00  0.00000000E+00  0.00000000E+00
  0.00000000E+00  0.00000000E+00  0.00000000E+00
  0.00000000E+00  0.00000000E+00  0.00000000E+00
  0.00000000E+00  0.00000000E+00  0.00000000E+00
  0.00000000E+00  0.00000000E+00  0.00000000E+00
  0.00000000E+00  0.00000000E+00  0.00000000E+00
  0.00000000E+00  0.00000000E+00  0.00000000E+00
  0.00000000E+00  0.00000000E+00  0.00000000E+00
  0.00000000E+00  0.00000000E+00  0.00000000E+00
  0.00000000E+00  0.00000000E+00  0.00000000E+00
  0.00000000E+00  0.00000000E+00  0.00000000E+00
  0.00000000E+00  0.00000000E+00  0.00000000E+00
  0.00000000E+00  0.00000000E+00  0.00000000E+00
  0.00000000E+00  0.00000000E+00  0.00000000E+00
  0.00000000E+00  0.00000000E+00  0.00000000E+00
  0.00000000E+00  0.00000000E+00  0.00000000E+00
  0.00000000E+00  0.00000000E+00  0.00000000E+00
