 C  N  F Fe                             
   1.00000000000000     
    11.1183284263389996  -19.2577712343753191   -0.0011402460464090
    11.1197894202263488   19.2586153259243211    0.0144071272941090
     0.0082674825929807    0.0057869570086234   25.3878047103462023
   C    N    F    Fe
   194     8    16     1
Direct
  0.9999953984496538  0.0000105693821164  0.0602351526527200
  0.0370575453551000  0.0741068400606079  0.0602654713361840
  0.0000211244982301  0.1111362484052713  0.0602013310124190
  0.0370756618608639  0.1852271345991910  0.0600226534619141
  0.0000358716799921  0.2222679536697835  0.0598048393997625
  0.0370713047628138  0.2963260270231720  0.0591321433241279
  0.0000247675697473  0.3333621519465775  0.0590280482329165
  0.0370753680796776  0.4074429695774042  0.0582235497702427
  0.0000281977628570  0.4444519647569865  0.0586788300455947
  0.0370810299445149  0.5185347879774381  0.0584740085432336
  0.9999988943908744  0.5555429829814703  0.0591240200276979
  0.0370335844731188  0.6295959547134493  0.0593454674015077
  0.9999677285229808  0.6666263753909711  0.0597527683212917
  0.0370248787275651  0.7407259695108319  0.0599151988639920
  0.9999817725792571  0.7777546365450249  0.0600769847180413
  0.0370423466012036  0.8518630073120546  0.0601027400547412
  0.9999972858529567  0.8888995870809433  0.0601744886808248
  0.0370440338514134  0.9629742474537547  0.0602087072605617
  0.1111339683217046  0.0000391002855928  0.0602214771719678
  0.1481821259489279  0.0741345343788171  0.0602120762197475
  0.1111437366967486  0.1111720592546348  0.0602368638076028
  0.1481590186329583  0.1852280854616551  0.0600553372381134
  0.1111362083961653  0.2222745847947618  0.0598655176988526
  0.1481612062843222  0.2963382842780376  0.0590813989384102
  0.1111474617944351  0.3333565725042796  0.0583774384925171
  0.1481587859501504  0.4074086847968557  0.0568981461849469
  0.1111411736243021  0.4444559592195203  0.0568161383400687
  0.1481636186396339  0.5185109006156453  0.0561098251781320
  0.1111315178433185  0.5555520984770328  0.0573419789658659
  0.1481781885069696  0.6296334122484789  0.0576770077520959
  0.1111332971238684  0.6666317182981126  0.0588812591215334
  0.1481731338192559  0.7407345593684210  0.0593057155561396
  0.1111248230569093  0.7777768154732649  0.0597787094419883
  0.1481539129581731  0.8518498858493385  0.0599407178473049
  0.1111111303582014  0.8889059185311441  0.0600723948900952
  0.1481690146327828  0.9630070471687474  0.0601729597548842
  0.2222548895040924  0.0000581687447629  0.0602104075973389
  0.2592914179841978  0.0741238472277667  0.0601601972555767
  0.2222489236419758  0.1111745862236190  0.0601024513928191
  0.2592981536129684  0.1852643221802626  0.0599235993375252
  0.2222396727813850  0.2222861743029909  0.0598763979988933
  0.2592384162172240  0.2963454182807960  0.0595738822873216
  0.2222117539142930  0.3333649675513531  0.0589176087034889
  0.2592134061114341  0.4073812287181173  0.0578513455075830
  0.2222201120751350  0.4444230312949434  0.0564556257060384
  0.2593007619324537  0.5185302929072211  0.0557235966761909
  0.2222649104298016  0.5555598135889490  0.0554454158848793
  0.2593297488064293  0.6296756622501369  0.0561341596699406
  0.2222644295149699  0.6666796341827903  0.0571833252684789
  0.2592770883175844  0.7407017593906106  0.0583757449681752
  0.2222311573806651  0.7777519770679516  0.0591729648301523
  0.2592693902679434  0.8518517674419908  0.0597061721732175
  0.2222411758289057  0.8888984498569992  0.0599671763978662
  0.2592865483331627  0.9630105245902926  0.0601717812317008
  0.3333418264962056  0.0000365389686277  0.0601991101643190
  0.3703879455744002  0.0741353048294929  0.0601368582781089
  0.3333646248063762  0.1111769773235627  0.0600601254907197
  0.3704102678087663  0.1852603165793419  0.0597126968380317
  0.3333500650771200  0.2222860925620190  0.0597548693205632
  0.3703799597261396  0.2963545607704046  0.0597260655484783
  0.3332874922547125  0.3333483411859526  0.0597780068015751
  0.3702903795420640  0.4074107175662700  0.0597645630019489
  0.3332959868016451  0.4444390213218576  0.0586158686662731
  0.3703798371105364  0.5185313071793005  0.0581844496401651
  0.3333530643064741  0.5555692946154023  0.0567290784324666
  0.3704124768455291  0.6296186183124994  0.0572669286089081
  0.3333672117709414  0.6666584826963473  0.0569941398073775
  0.3703918752373915  0.7407097440160116  0.0583951063978334
  0.3333605690113676  0.7777298587333311  0.0588000099590310
  0.3703902795348194  0.8518308067789718  0.0596191289250681
  0.3333604532210563  0.8888931915559783  0.0598334941532399
  0.3703739850887970  0.9629676483678739  0.0600880891480849
  0.4444528738120345  0.0000110049930618  0.0600395681124411
  0.4814845233057304  0.0741179056642504  0.0597930052496534
  0.4444585850814773  0.1111814847897796  0.0597770380143480
  0.4814676842696311  0.1852316394803215  0.0590376133152034
  0.4444439251477136  0.2222745792881892  0.0591343921679340
  0.4814824466660950  0.2963358673354429  0.0584752733120428
  0.4444501126157398  0.3333407797462163  0.0591979595373033
  0.4815216741984777  0.4073894676125291  0.0594559659574605
  0.4444202408104579  0.4444173793822273  0.0602163999257158
  0.4814962968824875  0.5185344543293887  0.0601838308246091
  0.4444022826959442  0.5555457527904436  0.0593561817642689
  0.4814707561206988  0.6296073094981416  0.0592128147751875
  0.4444380389630347  0.6666032749371799  0.0586644482891363
  0.4814744364755199  0.7406765458423992  0.0593491735603691
  0.4444583212947777  0.7777164210973215  0.0593441497150145
  0.4814707676435196  0.8517788105255927  0.0599463346609077
  0.4444409860882214  0.8888468817285110  0.0599402320806082
  0.4814737863231827  0.9629532420601939  0.0600555328620786
  0.5555556600881831  0.9999960180793775  0.0600315598772859
  0.5925677193079725  0.0740702131179437  0.0596769834919047
  0.5555350942189661  0.1111372350734770  0.0593749824301713
  0.5925609008321346  0.1852295570173494  0.0584039229314291
  0.5555220540258973  0.2222445346035361  0.0579539288262640
  0.5925399609908156  0.2962937063879291  0.0566418913407649
  0.5555045642361609  0.3333324793206069  0.0571222352912148
  0.5925683327575029  0.4073880317196988  0.0569320493452555
  0.5555555124723057  0.4444214265542055  0.0584171910383902
  0.5926245498568065  0.5185092675696555  0.0589708766847293
  0.5556275965723434  0.5555316034406498  0.0598986207714390
  0.5926210322012133  0.6295934884808398  0.0598701248070777
  0.5555318789221495  0.6665787197143150  0.0597388416984237
  0.5925621170980410  0.7406533809256627  0.0597356868493169
  0.5555097382614655  0.7776886269648082  0.0597711248583440
  0.5925620804405417  0.8517758521063553  0.0600602962086926
  0.5555409796942363  0.8888231573421717  0.0601742344314108
  0.5925821200027425  0.9629269462863274  0.0601639935837192
  0.6666365149163223  0.9999546157388280  0.0601041528505588
  0.7036820533386443  0.0740676941476044  0.0598844191101441
  0.6666531135514504  0.1111159672575797  0.0595458791481430
  0.7036869733309019  0.1852178338062026  0.0589260814754656
  0.6666429565252181  0.2222597592983120  0.0579912968293983
  0.7036601093044960  0.2962833443947333  0.0568269183556954
  0.6665889352090012  0.3332939599656453  0.0559153542419912
  0.7036625712274466  0.4074166708523897  0.0556844663472689
  0.6666336803215377  0.4444389728522580  0.0562434315010080
  0.7037016776232383  0.5185357973322315  0.0573019904061545
  0.6667019283542150  0.5555645497367580  0.0585247814541011
  0.7036955785448736  0.6295799831434747  0.0594476296997000
  0.6666629433366317  0.6666007451405658  0.0597857568173415
  0.7036734030641045  0.7406713721295034  0.0599213980474579
  0.6666198962008009  0.7776892559654828  0.0598488520500340
  0.7036747592288101  0.8517874763832469  0.0599818382256134
  0.6666357998850244  0.8888315908185888  0.0600682964785506
  0.7036698136904855  0.9628988974680266  0.0601306489091617
  0.7777515289890017  0.9999556276582711  0.0601107511448036
  0.8148082848698358  0.0740623208196318  0.0600380927787435
  0.7777694726320210  0.1111158410196768  0.0598807619576745
  0.8147970308113917  0.1851908581843395  0.0596706299970931
  0.7777447710528560  0.2222345761863867  0.0591110755679564
  0.8147878317056227  0.2963324827154136  0.0586554631739561
  0.7777448147553688  0.3333353627728787  0.0574440701258791
  0.8147933846065227  0.4074134033951058  0.0573871134842682
  0.7777524170108528  0.4444577061098353  0.0564972993667994
  0.8147725813160096  0.5185036475674992  0.0575662075497417
  0.7777463464321578  0.5555460866353426  0.0578318254918784
  0.8147672619925412  0.6296025583871813  0.0591640419997910
  0.7777528754549741  0.6666183263467773  0.0596567490397951
  0.8147856127560534  0.7406922859224784  0.0601305213059297
  0.7777599888839519  0.7777348305786889  0.0601160814526035
  0.8147800446740143  0.8517933464450764  0.0601700897519140
  0.7777362377653371  0.8888287056350322  0.0601015225517512
  0.8147862124321202  0.9629242977931932  0.0601471780313255
  0.8888789594783001  0.9999908096151136  0.0601744075716632
  0.9259230932503056  0.0740645698471012  0.0601497555033325
  0.8888768330032127  0.1111053622145422  0.0600584234901601
  0.9259377187891406  0.1852109467425466  0.0599373852130078
  0.8888942934346186  0.2222409816859938  0.0597525840350516
  0.9259478050291701  0.2963375084646866  0.0594716352765767
  0.8888839702170926  0.3333645847885310  0.0591270773407975
  0.9259213481016002  0.4074171669024377  0.0589706716972430
  0.8888384569168594  0.4444280028301560  0.0585426300535678
  0.9258949683061770  0.5185104931789453  0.0589451495545102
  0.8888408882503516  0.5555174398757539  0.0587877468179518
  0.9258915919018385  0.6296015457346817  0.0595288872445112
  0.8888451942365052  0.6666336592100447  0.0596887054703693
  0.9258847489909102  0.7406952587961967  0.0600935684492840
  0.8888393524798964  0.7777360821399286  0.0602106264737817
  0.9258993538275597  0.8518305887438867  0.0602346476191128
  0.8888613585908903  0.8888582255858180  0.0602310803515748
  0.9259234509948032  0.9629569714134363  0.0602114419085724
  0.2665605290737169  0.1334452336560674  0.1960126583116421
  0.3358520755717292  0.1873552234522622  0.1934588474483575
  0.3495840795614502  0.2559633152051281  0.1913813250429191
  0.2942658647537743  0.2705663978995510  0.1914541439530901
  0.2251829596811409  0.2166658955634825  0.1938960620657252
  0.2116211586278231  0.1479879627093079  0.1963680095144560
  0.3260591651595864  0.3459343250974227  0.1887877122216813
  0.4137800550709879  0.3228582188116931  0.1888303174595596
  0.3184387048983018  0.4461255090512441  0.1863202273797617
  0.3956238199899745  0.5607941633242536  0.1868451097892353
  0.2781732213830373  0.4814817153281865  0.1850527292279855
  0.3268409098098294  0.5538102870450670  0.1854324358883243
  0.3042155617040518  0.6022767185274654  0.1839143811100539
  0.2326887096983948  0.5780349564819001  0.1822031751665405
  0.1842815490350799  0.5061670967160549  0.1820019099225079
  0.2067729272439274  0.4574999973023336  0.1832972374517721
  0.5338343380110716  0.3896250822324124  0.1867207866189704
  0.6109468269795809  0.5042959050526582  0.1877395997801716
  0.6255332294771313  0.3484367576152573  0.1836141750078385
  0.6971185959779572  0.3728541656500279  0.1826235633627712
  0.7454236103508599  0.4447336298294755  0.1835859319977477
  0.7227522636193509  0.4932334200650778  0.1855019909374151
  0.6512943932617880  0.4690523457813289  0.1865274732684127
  0.6026736664995511  0.3967024215107740  0.1856932842662100
  0.6033148520378960  0.6044795778631686  0.1901805356652164
  0.5156246227509295  0.6275609173858646  0.1896137904448360
  0.6351201557300157  0.6798425173044695  0.1924299060133666
  0.7042181991096280  0.7337519352975944  0.1942750236097854
  0.7178530999586327  0.8024934013423296  0.1955325129553056
  0.6629335787018386  0.8170682444307296  0.1947809667135854
  0.5936166135546513  0.7631376736062866  0.1930269909489924
  0.5798219243615327  0.6944755769501246  0.1919410929082624
  0.3982674594619518  0.3764017216489927  0.1877582626999843
  0.2888328772056523  0.3774589366007934  0.1873947119911914
  0.3892106666302528  0.4950420254335529  0.1869407867588330
  0.4759804510670685  0.3283468999125347  0.1876372215617719
  0.5401921588509668  0.4553511432130226  0.1874267929239218
  0.6405304170175578  0.5729374276840981  0.1891841744255159
  0.5311105752493442  0.5740032884801894  0.1888703282782849
  0.4534238248936884  0.6220611137841702  0.1882291802130751
  0.2513983914638018  0.0662731879066608  0.1979293675542907
  0.3868794378049344  0.1708524434012059  0.1927942346758969
  0.1708453843665282  0.2282605882770783  0.1937379932694116
  0.1452306883849230  0.0943971109083649  0.1986781871068473
  0.3487977348652246  0.6717410342019419  0.1834018796131256
  0.2089570981757959  0.6235668654808778  0.1798288811084418
  0.1154820160120044  0.4848364655083843  0.1797794899594833
  0.1586036876798386  0.3889969762475465  0.1821585516358990
  0.5811061378141207  0.2789876531228768  0.1817832267951494
  0.7209949266587226  0.3274678491011368  0.1797206784563414
  0.8142971747611280  0.4663035789049367  0.1818248938707046
  0.7708398469034345  0.5617859068895813  0.1856850567897518
  0.7585223301852567  0.7221071881598043  0.1943678951523947
  0.7842898971392773  0.8560966845965428  0.1968366729411085
  0.6781714224025835  0.8842999422513308  0.1953017504773617
  0.5426051724391823  0.7796498432059569  0.1918539955702941
  0.4646934801531118  0.4751992425034854  0.1867144493401977
 
  0.00000000E+00  0.00000000E+00  0.00000000E+00
  0.00000000E+00  0.00000000E+00  0.00000000E+00
  0.00000000E+00  0.00000000E+00  0.00000000E+00
  0.00000000E+00  0.00000000E+00  0.00000000E+00
  0.00000000E+00  0.00000000E+00  0.00000000E+00
  0.00000000E+00  0.00000000E+00  0.00000000E+00
  0.00000000E+00  0.00000000E+00  0.00000000E+00
  0.00000000E+00  0.00000000E+00  0.00000000E+00
  0.00000000E+00  0.00000000E+00  0.00000000E+00
  0.00000000E+00  0.00000000E+00  0.00000000E+00
  0.00000000E+00  0.00000000E+00  0.00000000E+00
  0.00000000E+00  0.00000000E+00  0.00000000E+00
  0.00000000E+00  0.00000000E+00  0.00000000E+00
  0.00000000E+00  0.00000000E+00  0.00000000E+00
  0.00000000E+00  0.00000000E+00  0.00000000E+00
  0.00000000E+00  0.00000000E+00  0.00000000E+00
  0.00000000E+00  0.00000000E+00  0.00000000E+00
  0.00000000E+00  0.00000000E+00  0.00000000E+00
  0.00000000E+00  0.00000000E+00  0.00000000E+00
  0.00000000E+00  0.00000000E+00  0.00000000E+00
  0.00000000E+00  0.00000000E+00  0.00000000E+00
  0.00000000E+00  0.00000000E+00  0.00000000E+00
  0.00000000E+00  0.00000000E+00  0.00000000E+00
  0.00000000E+00  0.00000000E+00  0.00000000E+00
  0.00000000E+00  0.00000000E+00  0.00000000E+00
  0.00000000E+00  0.00000000E+00  0.00000000E+00
  0.00000000E+00  0.00000000E+00  0.00000000E+00
  0.00000000E+00  0.00000000E+00  0.00000000E+00
  0.00000000E+00  0.00000000E+00  0.00000000E+00
  0.00000000E+00  0.00000000E+00  0.00000000E+00
  0.00000000E+00  0.00000000E+00  0.00000000E+00
  0.00000000E+00  0.00000000E+00  0.00000000E+00
  0.00000000E+00  0.00000000E+00  0.00000000E+00
  0.00000000E+00  0.00000000E+00  0.00000000E+00
  0.00000000E+00  0.00000000E+00  0.00000000E+00
  0.00000000E+00  0.00000000E+00  0.00000000E+00
  0.00000000E+00  0.00000000E+00  0.00000000E+00
  0.00000000E+00  0.00000000E+00  0.00000000E+00
  0.00000000E+00  0.00000000E+00  0.00000000E+00
  0.00000000E+00  0.00000000E+00  0.00000000E+00
  0.00000000E+00  0.00000000E+00  0.00000000E+00
  0.00000000E+00  0.00000000E+00  0.00000000E+00
  0.00000000E+00  0.00000000E+00  0.00000000E+00
  0.00000000E+00  0.00000000E+00  0.00000000E+00
  0.00000000E+00  0.00000000E+00  0.00000000E+00
  0.00000000E+00  0.00000000E+00  0.00000000E+00
  0.00000000E+00  0.00000000E+00  0.00000000E+00
  0.00000000E+00  0.00000000E+00  0.00000000E+00
  0.00000000E+00  0.00000000E+00  0.00000000E+00
  0.00000000E+00  0.00000000E+00  0.00000000E+00
  0.00000000E+00  0.00000000E+00  0.00000000E+00
  0.00000000E+00  0.00000000E+00  0.00000000E+00
  0.00000000E+00  0.00000000E+00  0.00000000E+00
  0.00000000E+00  0.00000000E+00  0.00000000E+00
  0.00000000E+00  0.00000000E+00  0.00000000E+00
  0.00000000E+00  0.00000000E+00  0.00000000E+00
  0.00000000E+00  0.00000000E+00  0.00000000E+00
  0.00000000E+00  0.00000000E+00  0.00000000E+00
  0.00000000E+00  0.00000000E+00  0.00000000E+00
  0.00000000E+00  0.00000000E+00  0.00000000E+00
  0.00000000E+00  0.00000000E+00  0.00000000E+00
  0.00000000E+00  0.00000000E+00  0.00000000E+00
  0.00000000E+00  0.00000000E+00  0.00000000E+00
  0.00000000E+00  0.00000000E+00  0.00000000E+00
  0.00000000E+00  0.00000000E+00  0.00000000E+00
  0.00000000E+00  0.00000000E+00  0.00000000E+00
  0.00000000E+00  0.00000000E+00  0.00000000E+00
  0.00000000E+00  0.00000000E+00  0.00000000E+00
  0.00000000E+00  0.00000000E+00  0.00000000E+00
  0.00000000E+00  0.00000000E+00  0.00000000E+00
  0.00000000E+00  0.00000000E+00  0.00000000E+00
  0.00000000E+00  0.00000000E+00  0.00000000E+00
  0.00000000E+00  0.00000000E+00  0.00000000E+00
  0.00000000E+00  0.00000000E+00  0.00000000E+00
  0.00000000E+00  0.00000000E+00  0.00000000E+00
  0.00000000E+00  0.00000000E+00  0.00000000E+00
  0.00000000E+00  0.00000000E+00  0.00000000E+00
  0.00000000E+00  0.00000000E+00  0.00000000E+00
  0.00000000E+00  0.00000000E+00  0.00000000E+00
  0.00000000E+00  0.00000000E+00  0.00000000E+00
  0.00000000E+00  0.00000000E+00  0.00000000E+00
  0.00000000E+00  0.00000000E+00  0.00000000E+00
  0.00000000E+00  0.00000000E+00  0.00000000E+00
  0.00000000E+00  0.00000000E+00  0.00000000E+00
  0.00000000E+00  0.00000000E+00  0.00000000E+00
  0.00000000E+00  0.00000000E+00  0.00000000E+00
  0.00000000E+00  0.00000000E+00  0.00000000E+00
  0.00000000E+00  0.00000000E+00  0.00000000E+00
  0.00000000E+00  0.00000000E+00  0.00000000E+00
  0.00000000E+00  0.00000000E+00  0.00000000E+00
  0.00000000E+00  0.00000000E+00  0.00000000E+00
  0.00000000E+00  0.00000000E+00  0.00000000E+00
  0.00000000E+00  0.00000000E+00  0.00000000E+00
  0.00000000E+00  0.00000000E+00  0.00000000E+00
  0.00000000E+00  0.00000000E+00  0.00000000E+00
  0.00000000E+00  0.00000000E+00  0.00000000E+00
  0.00000000E+00  0.00000000E+00  0.00000000E+00
  0.00000000E+00  0.00000000E+00  0.00000000E+00
  0.00000000E+00  0.00000000E+00  0.00000000E+00
  0.00000000E+00  0.00000000E+00  0.00000000E+00
  0.00000000E+00  0.00000000E+00  0.00000000E+00
  0.00000000E+00  0.00000000E+00  0.00000000E+00
  0.00000000E+00  0.00000000E+00  0.00000000E+00
  0.00000000E+00  0.00000000E+00  0.00000000E+00
  0.00000000E+00  0.00000000E+00  0.00000000E+00
  0.00000000E+00  0.00000000E+00  0.00000000E+00
  0.00000000E+00  0.00000000E+00  0.00000000E+00
  0.00000000E+00  0.00000000E+00  0.00000000E+00
  0.00000000E+00  0.00000000E+00  0.00000000E+00
  0.00000000E+00  0.00000000E+00  0.00000000E+00
  0.00000000E+00  0.00000000E+00  0.00000000E+00
  0.00000000E+00  0.00000000E+00  0.00000000E+00
  0.00000000E+00  0.00000000E+00  0.00000000E+00
  0.00000000E+00  0.00000000E+00  0.00000000E+00
  0.00000000E+00  0.00000000E+00  0.00000000E+00
  0.00000000E+00  0.00000000E+00  0.00000000E+00
  0.00000000E+00  0.00000000E+00  0.00000000E+00
  0.00000000E+00  0.00000000E+00  0.00000000E+00
  0.00000000E+00  0.00000000E+00  0.00000000E+00
  0.00000000E+00  0.00000000E+00  0.00000000E+00
  0.00000000E+00  0.00000000E+00  0.00000000E+00
  0.00000000E+00  0.00000000E+00  0.00000000E+00
  0.00000000E+00  0.00000000E+00  0.00000000E+00
  0.00000000E+00  0.00000000E+00  0.00000000E+00
  0.00000000E+00  0.00000000E+00  0.00000000E+00
  0.00000000E+00  0.00000000E+00  0.00000000E+00
  0.00000000E+00  0.00000000E+00  0.00000000E+00
  0.00000000E+00  0.00000000E+00  0.00000000E+00
  0.00000000E+00  0.00000000E+00  0.00000000E+00
  0.00000000E+00  0.00000000E+00  0.00000000E+00
  0.00000000E+00  0.00000000E+00  0.00000000E+00
  0.00000000E+00  0.00000000E+00  0.00000000E+00
  0.00000000E+00  0.00000000E+00  0.00000000E+00
  0.00000000E+00  0.00000000E+00  0.00000000E+00
  0.00000000E+00  0.00000000E+00  0.00000000E+00
  0.00000000E+00  0.00000000E+00  0.00000000E+00
  0.00000000E+00  0.00000000E+00  0.00000000E+00
  0.00000000E+00  0.00000000E+00  0.00000000E+00
  0.00000000E+00  0.00000000E+00  0.00000000E+00
  0.00000000E+00  0.00000000E+00  0.00000000E+00
  0.00000000E+00  0.00000000E+00  0.00000000E+00
  0.00000000E+00  0.00000000E+00  0.00000000E+00
  0.00000000E+00  0.00000000E+00  0.00000000E+00
  0.00000000E+00  0.00000000E+00  0.00000000E+00
  0.00000000E+00  0.00000000E+00  0.00000000E+00
  0.00000000E+00  0.00000000E+00  0.00000000E+00
  0.00000000E+00  0.00000000E+00  0.00000000E+00
  0.00000000E+00  0.00000000E+00  0.00000000E+00
  0.00000000E+00  0.00000000E+00  0.00000000E+00
  0.00000000E+00  0.00000000E+00  0.00000000E+00
  0.00000000E+00  0.00000000E+00  0.00000000E+00
  0.00000000E+00  0.00000000E+00  0.00000000E+00
  0.00000000E+00  0.00000000E+00  0.00000000E+00
  0.00000000E+00  0.00000000E+00  0.00000000E+00
  0.00000000E+00  0.00000000E+00  0.00000000E+00
  0.00000000E+00  0.00000000E+00  0.00000000E+00
  0.00000000E+00  0.00000000E+00  0.00000000E+00
  0.00000000E+00  0.00000000E+00  0.00000000E+00
  0.00000000E+00  0.00000000E+00  0.00000000E+00
  0.00000000E+00  0.00000000E+00  0.00000000E+00
  0.00000000E+00  0.00000000E+00  0.00000000E+00
  0.00000000E+00  0.00000000E+00  0.00000000E+00
  0.00000000E+00  0.00000000E+00  0.00000000E+00
  0.00000000E+00  0.00000000E+00  0.00000000E+00
  0.00000000E+00  0.00000000E+00  0.00000000E+00
  0.00000000E+00  0.00000000E+00  0.00000000E+00
  0.00000000E+00  0.00000000E+00  0.00000000E+00
  0.00000000E+00  0.00000000E+00  0.00000000E+00
  0.00000000E+00  0.00000000E+00  0.00000000E+00
  0.00000000E+00  0.00000000E+00  0.00000000E+00
  0.00000000E+00  0.00000000E+00  0.00000000E+00
  0.00000000E+00  0.00000000E+00  0.00000000E+00
  0.00000000E+00  0.00000000E+00  0.00000000E+00
  0.00000000E+00  0.00000000E+00  0.00000000E+00
  0.00000000E+00  0.00000000E+00  0.00000000E+00
  0.00000000E+00  0.00000000E+00  0.00000000E+00
  0.00000000E+00  0.00000000E+00  0.00000000E+00
  0.00000000E+00  0.00000000E+00  0.00000000E+00
  0.00000000E+00  0.00000000E+00  0.00000000E+00
  0.00000000E+00  0.00000000E+00  0.00000000E+00
  0.00000000E+00  0.00000000E+00  0.00000000E+00
  0.00000000E+00  0.00000000E+00  0.00000000E+00
  0.00000000E+00  0.00000000E+00  0.00000000E+00
  0.00000000E+00  0.00000000E+00  0.00000000E+00
  0.00000000E+00  0.00000000E+00  0.00000000E+00
  0.00000000E+00  0.00000000E+00  0.00000000E+00
  0.00000000E+00  0.00000000E+00  0.00000000E+00
  0.00000000E+00  0.00000000E+00  0.00000000E+00
  0.00000000E+00  0.00000000E+00  0.00000000E+00
  0.00000000E+00  0.00000000E+00  0.00000000E+00
  0.00000000E+00  0.00000000E+00  0.00000000E+00
  0.00000000E+00  0.00000000E+00  0.00000000E+00
  0.00000000E+00  0.00000000E+00  0.00000000E+00
  0.00000000E+00  0.00000000E+00  0.00000000E+00
  0.00000000E+00  0.00000000E+00  0.00000000E+00
  0.00000000E+00  0.00000000E+00  0.00000000E+00
  0.00000000E+00  0.00000000E+00  0.00000000E+00
  0.00000000E+00  0.00000000E+00  0.00000000E+00
  0.00000000E+00  0.00000000E+00  0.00000000E+00
  0.00000000E+00  0.00000000E+00  0.00000000E+00
  0.00000000E+00  0.00000000E+00  0.00000000E+00
  0.00000000E+00  0.00000000E+00  0.00000000E+00
  0.00000000E+00  0.00000000E+00  0.00000000E+00
  0.00000000E+00  0.00000000E+00  0.00000000E+00
  0.00000000E+00  0.00000000E+00  0.00000000E+00
  0.00000000E+00  0.00000000E+00  0.00000000E+00
  0.00000000E+00  0.00000000E+00  0.00000000E+00
  0.00000000E+00  0.00000000E+00  0.00000000E+00
  0.00000000E+00  0.00000000E+00  0.00000000E+00
  0.00000000E+00  0.00000000E+00  0.00000000E+00
  0.00000000E+00  0.00000000E+00  0.00000000E+00
  0.00000000E+00  0.00000000E+00  0.00000000E+00
  0.00000000E+00  0.00000000E+00  0.00000000E+00
  0.00000000E+00  0.00000000E+00  0.00000000E+00
  0.00000000E+00  0.00000000E+00  0.00000000E+00
  0.00000000E+00  0.00000000E+00  0.00000000E+00
  0.00000000E+00  0.00000000E+00  0.00000000E+00
  0.00000000E+00  0.00000000E+00  0.00000000E+00
  0.00000000E+00  0.00000000E+00  0.00000000E+00
