 C  N Cr                                
   1.00000000000000     
    12.5277446475074452    0.0000000000000000    0.0000000000000000
    -0.0000000000000004   12.8292981345688375    0.0000000000000000
     0.0000000000000003    0.0000000000000000   19.8713392819153718
   C    N    Cr
    56     2     1
Direct
  0.0520667751087802  0.0474195055915725  0.1594072079602703
  0.1519243992629928  0.1020838276560223  0.1593750688048971
  0.1514473002253900  0.2131819941478832  0.1592967174550381
  0.0521197761885690  0.2684767472712149  0.1592508947543331
  0.2523130691061918  0.0473779590129047  0.1594090194652702
  0.3523564568899572  0.1026530663970786  0.1594204168141015
  0.3513523417330360  0.2142973786074026  0.1593661473004699
  0.2505855958745904  0.2684498181473413  0.1592855106268266
  0.4530374424842110  0.0481798226235984  0.1594560704433726
  0.5528892003177487  0.1062853943716739  0.1594622037841028
  0.5526565403174285  0.2187651667584168  0.1594417931072191
  0.4497741587463440  0.2726870336107785  0.1593857193588787
  0.6520917758043752  0.0479812607999910  0.1594657676561869
  0.7522636694586304  0.1027895025127707  0.1594239948674338
  0.7536783334226964  0.2147127236560775  0.1593687532239305
  0.6559876009635195  0.2737118770081985  0.1593845408805075
  0.8520443392478431  0.0475209185539000  0.1594098236303314
  0.9521930116083089  0.1022164118533683  0.1593745627033922
  0.9528605527897306  0.2132478654030461  0.1593016739257534
  0.8538495841544934  0.2687377823426966  0.1592965773029639
  0.0516362994849817  0.3802641952345175  0.1592055355744021
  0.1491725638148388  0.4359320021948423  0.1591939919997516
  0.1491751681502063  0.5478024529212884  0.1591951298165001
  0.0516437038560432  0.6034776596934081  0.1592183891755184
  0.2471500361325258  0.3795862324572412  0.1592291315961291
  0.3440696972459457  0.4349951098596662  0.1592574272440661
  0.3440634828430797  0.5487164299048530  0.1592609120900887
  0.2471460915980878  0.6041469490940924  0.1592282311476477
  0.7579247873973003  0.4342549803484594  0.1592879826724276
  0.7579182092395442  0.5494854952824110  0.1592920930626787
  0.8558963226055500  0.3803896040265529  0.1592366720192067
  0.9539563593272502  0.4362969296303431  0.1591803491459813
  0.9539482064017121  0.5474656208619214  0.1591801416695823
  0.8558907802343739  0.6033559502184531  0.1592303861730765
  0.0521274736744609  0.7152654934466500  0.1592618709485402
  0.1514469773171593  0.7705667680636633  0.1593085323163185
  0.0520712646957842  0.9363820225434544  0.1594133158597694
  0.2505808591112470  0.7152835537857858  0.1592929672418587
  0.3513575744089538  0.7694326802481963  0.1593760985857296
  0.3523640184348212  0.8810786062280055  0.1594215486684608
  0.2523099413203931  0.9363522900651511  0.1594119319947344
  0.4497858591970867  0.7110625399187075  0.1593910227656583
  0.5526720260923473  0.7650103656650390  0.1594449092415441
  0.5528987067545664  0.8774917156819061  0.1594561570983157
  0.4530409641677733  0.9355829181929078  0.1594485886871596
  0.6559910751646191  0.7100646996807516  0.1594133142177264
  0.7536890865161230  0.7690245881018916  0.1593849777479071
  0.7522830510754868  0.8809420144453548  0.1594242657913792
  0.6521080345885422  0.9357805787106109  0.1594614377845046
  0.8538606639828555  0.7150098369031922  0.1592987256287224
  0.9528729677702755  0.7705089746224066  0.1593117932415596
  0.8520641288370333  0.9362037987424452  0.1594088231600712
  0.1518984774503247  0.8816711893856094  0.1593781751158917
  0.9522225194732585  0.8815472359214349  0.1593752087967219
  0.4432888847132079  0.3829635812372655  0.1593487268582308
  0.4432830677191830  0.6007607049848056  0.1593553181529785
  0.6631524902332898  0.3808288642586972  0.1593754648829450
  0.6631508010944942  0.6029364632020456  0.1593849479514114
  0.5525755441599116  0.4918828440269509  0.1594530992814432
 
  0.00000000E+00  0.00000000E+00  0.00000000E+00
  0.00000000E+00  0.00000000E+00  0.00000000E+00
  0.00000000E+00  0.00000000E+00  0.00000000E+00
  0.00000000E+00  0.00000000E+00  0.00000000E+00
  0.00000000E+00  0.00000000E+00  0.00000000E+00
  0.00000000E+00  0.00000000E+00  0.00000000E+00
  0.00000000E+00  0.00000000E+00  0.00000000E+00
  0.00000000E+00  0.00000000E+00  0.00000000E+00
  0.00000000E+00  0.00000000E+00  0.00000000E+00
  0.00000000E+00  0.00000000E+00  0.00000000E+00
  0.00000000E+00  0.00000000E+00  0.00000000E+00
  0.00000000E+00  0.00000000E+00  0.00000000E+00
  0.00000000E+00  0.00000000E+00  0.00000000E+00
  0.00000000E+00  0.00000000E+00  0.00000000E+00
  0.00000000E+00  0.00000000E+00  0.00000000E+00
  0.00000000E+00  0.00000000E+00  0.00000000E+00
  0.00000000E+00  0.00000000E+00  0.00000000E+00
  0.00000000E+00  0.00000000E+00  0.00000000E+00
  0.00000000E+00  0.00000000E+00  0.00000000E+00
  0.00000000E+00  0.00000000E+00  0.00000000E+00
  0.00000000E+00  0.00000000E+00  0.00000000E+00
  0.00000000E+00  0.00000000E+00  0.00000000E+00
  0.00000000E+00  0.00000000E+00  0.00000000E+00
  0.00000000E+00  0.00000000E+00  0.00000000E+00
  0.00000000E+00  0.00000000E+00  0.00000000E+00
  0.00000000E+00  0.00000000E+00  0.00000000E+00
  0.00000000E+00  0.00000000E+00  0.00000000E+00
  0.00000000E+00  0.00000000E+00  0.00000000E+00
  0.00000000E+00  0.00000000E+00  0.00000000E+00
  0.00000000E+00  0.00000000E+00  0.00000000E+00
  0.00000000E+00  0.00000000E+00  0.00000000E+00
  0.00000000E+00  0.00000000E+00  0.00000000E+00
  0.00000000E+00  0.00000000E+00  0.00000000E+00
  0.00000000E+00  0.00000000E+00  0.00000000E+00
  0.00000000E+00  0.00000000E+00  0.00000000E+00
  0.00000000E+00  0.00000000E+00  0.00000000E+00
  0.00000000E+00  0.00000000E+00  0.00000000E+00
  0.00000000E+00  0.00000000E+00  0.00000000E+00
  0.00000000E+00  0.00000000E+00  0.00000000E+00
  0.00000000E+00  0.00000000E+00  0.00000000E+00
  0.00000000E+00  0.00000000E+00  0.00000000E+00
  0.00000000E+00  0.00000000E+00  0.00000000E+00
  0.00000000E+00  0.00000000E+00  0.00000000E+00
  0.00000000E+00  0.00000000E+00  0.00000000E+00
  0.00000000E+00  0.00000000E+00  0.00000000E+00
  0.00000000E+00  0.00000000E+00  0.00000000E+00
  0.00000000E+00  0.00000000E+00  0.00000000E+00
  0.00000000E+00  0.00000000E+00  0.00000000E+00
  0.00000000E+00  0.00000000E+00  0.00000000E+00
  0.00000000E+00  0.00000000E+00  0.00000000E+00
  0.00000000E+00  0.00000000E+00  0.00000000E+00
  0.00000000E+00  0.00000000E+00  0.00000000E+00
  0.00000000E+00  0.00000000E+00  0.00000000E+00
  0.00000000E+00  0.00000000E+00  0.00000000E+00
  0.00000000E+00  0.00000000E+00  0.00000000E+00
  0.00000000E+00  0.00000000E+00  0.00000000E+00
  0.00000000E+00  0.00000000E+00  0.00000000E+00
  0.00000000E+00  0.00000000E+00  0.00000000E+00
  0.00000000E+00  0.00000000E+00  0.00000000E+00
