 C  N Fe                                
   1.00000000000000     
    12.5203820813170790    0.0000000000000000    0.0000000000000000
    -0.0000000000000004   12.7832496472575183    0.0000000000000000
     0.0000000000000003    0.0000000000000000   19.8713392819153718
   C    N    Fe
    56     2     1
Direct
  0.0523153035270262  0.0474222112253926  0.1594101670630536
  0.1522875509991689  0.1019205684534675  0.1593712633064714
  0.1513033430232301  0.2128177142127849  0.1592834902631291
  0.0520553665373644  0.2682184077310950  0.1592435893826401
  0.2530954523890009  0.0477592296552824  0.1594050354740838
  0.3528917195705060  0.1033172335017434  0.1594050128512196
  0.3516515918866499  0.2157864530632738  0.1593579565094888
  0.2506541406838905  0.2682287734265953  0.1592701453318945
  0.4530129798555735  0.0480177886920879  0.1594293485692989
  0.5517368594510104  0.1068218617639565  0.1594336076290920
  0.5517696373728040  0.2200364655292999  0.1594540650630600
  0.4495834025736069  0.2759551698479084  0.1594115721688039
  0.6513968073561341  0.0485795521010196  0.1594363459515485
  0.7520180272534072  0.1032466045968870  0.1593964419002875
  0.7526177127040401  0.2154954500381279  0.1593648826549206
  0.6539785874452361  0.2743712411878585  0.1594237850920179
  0.8516171026393154  0.0474385626093345  0.1593860151856481
  0.9523653017930551  0.1021207060920690  0.1593656439053796
  0.9525697069040555  0.2133818255739869  0.1592944070552625
  0.8532169981118647  0.2691782995976786  0.1592884226311538
  0.0522947029681188  0.3804549253378557  0.1592078866086934
  0.1500100461080348  0.4359856536818770  0.1591969957581830
  0.1496467899551594  0.5476109539318158  0.1592125181244423
  0.0518018298701972  0.6032910998583998  0.1592383974278411
  0.2482150308329900  0.3793469560921729  0.1592217276703355
  0.3454540289287389  0.4338506227077510  0.1592959086540201
  0.3454558880168809  0.5475707923642590  0.1592946962572289
  0.2480594004933495  0.6030102839616600  0.1592743935890493
  0.7586512617012972  0.4361742000235806  0.1593101768264012
  0.7586656603892239  0.5499033202758110  0.1592892917857419
  0.8560645249332982  0.3807092890518261  0.1592266260881793
  0.9544186419847446  0.4361330193176197  0.1591925272726680
  0.9540477541684355  0.5477672550689161  0.1592107238228894
  0.8559084589251950  0.6044196254845996  0.1592554879514975
  0.0523231227006694  0.7155133868476895  0.1592751487685278
  0.1518823754562225  0.7703532119201956  0.1593094289592091
  0.0524036832076990  0.9363477546648917  0.1594188009750319
  0.2511446895748658  0.7145475724353000  0.1593229618438291
  0.3518340568113873  0.7682053161475292  0.1593978796391175
  0.3526469361627095  0.8804505179893782  0.1594183801275720
  0.2530916501183747  0.9362735734943953  0.1594099857309783
  0.4503912089552807  0.7093421732465284  0.1594066824631614
  0.5526747599921242  0.7637327182779273  0.1594145358153306
  0.5529420915973943  0.8769440008508910  0.1594320988926293
  0.4532969756907669  0.9351600853154939  0.1594311426350196
  0.6548080643141088  0.7078746302031032  0.1593926830701606
  0.7528333841712876  0.7679745212792305  0.1593799723815691
  0.7518089153257127  0.8804426303675841  0.1594109990725371
  0.6517116568266820  0.9357301627866895  0.1594326624955618
  0.8537407570014452  0.7155251938385300  0.1593080702426979
  0.9531526377399638  0.7709452807307229  0.1593288026277480
  0.8516419311741910  0.9359798569528901  0.1593985899296564
  0.1522987339013155  0.8816145282805127  0.1593803561837816
  0.9524213933023130  0.8818384131313933  0.1593820981524624
  0.4450901303536566  0.5980191897210279  0.1593104804960150
  0.6590222404613376  0.3857183644040947  0.1594556378408501
  0.4427874965834059  0.3848541289471183  0.1594319777635408
  0.6613574675836249  0.5989617471793647  0.1593395690624028
  0.5520421195200137  0.4918889212380378  0.1593325579736399
 
  0.00000000E+00  0.00000000E+00  0.00000000E+00
  0.00000000E+00  0.00000000E+00  0.00000000E+00
  0.00000000E+00  0.00000000E+00  0.00000000E+00
  0.00000000E+00  0.00000000E+00  0.00000000E+00
  0.00000000E+00  0.00000000E+00  0.00000000E+00
  0.00000000E+00  0.00000000E+00  0.00000000E+00
  0.00000000E+00  0.00000000E+00  0.00000000E+00
  0.00000000E+00  0.00000000E+00  0.00000000E+00
  0.00000000E+00  0.00000000E+00  0.00000000E+00
  0.00000000E+00  0.00000000E+00  0.00000000E+00
  0.00000000E+00  0.00000000E+00  0.00000000E+00
  0.00000000E+00  0.00000000E+00  0.00000000E+00
  0.00000000E+00  0.00000000E+00  0.00000000E+00
  0.00000000E+00  0.00000000E+00  0.00000000E+00
  0.00000000E+00  0.00000000E+00  0.00000000E+00
  0.00000000E+00  0.00000000E+00  0.00000000E+00
  0.00000000E+00  0.00000000E+00  0.00000000E+00
  0.00000000E+00  0.00000000E+00  0.00000000E+00
  0.00000000E+00  0.00000000E+00  0.00000000E+00
  0.00000000E+00  0.00000000E+00  0.00000000E+00
  0.00000000E+00  0.00000000E+00  0.00000000E+00
  0.00000000E+00  0.00000000E+00  0.00000000E+00
  0.00000000E+00  0.00000000E+00  0.00000000E+00
  0.00000000E+00  0.00000000E+00  0.00000000E+00
  0.00000000E+00  0.00000000E+00  0.00000000E+00
  0.00000000E+00  0.00000000E+00  0.00000000E+00
  0.00000000E+00  0.00000000E+00  0.00000000E+00
  0.00000000E+00  0.00000000E+00  0.00000000E+00
  0.00000000E+00  0.00000000E+00  0.00000000E+00
  0.00000000E+00  0.00000000E+00  0.00000000E+00
  0.00000000E+00  0.00000000E+00  0.00000000E+00
  0.00000000E+00  0.00000000E+00  0.00000000E+00
  0.00000000E+00  0.00000000E+00  0.00000000E+00
  0.00000000E+00  0.00000000E+00  0.00000000E+00
  0.00000000E+00  0.00000000E+00  0.00000000E+00
  0.00000000E+00  0.00000000E+00  0.00000000E+00
  0.00000000E+00  0.00000000E+00  0.00000000E+00
  0.00000000E+00  0.00000000E+00  0.00000000E+00
  0.00000000E+00  0.00000000E+00  0.00000000E+00
  0.00000000E+00  0.00000000E+00  0.00000000E+00
  0.00000000E+00  0.00000000E+00  0.00000000E+00
  0.00000000E+00  0.00000000E+00  0.00000000E+00
  0.00000000E+00  0.00000000E+00  0.00000000E+00
  0.00000000E+00  0.00000000E+00  0.00000000E+00
  0.00000000E+00  0.00000000E+00  0.00000000E+00
  0.00000000E+00  0.00000000E+00  0.00000000E+00
  0.00000000E+00  0.00000000E+00  0.00000000E+00
  0.00000000E+00  0.00000000E+00  0.00000000E+00
  0.00000000E+00  0.00000000E+00  0.00000000E+00
  0.00000000E+00  0.00000000E+00  0.00000000E+00
  0.00000000E+00  0.00000000E+00  0.00000000E+00
  0.00000000E+00  0.00000000E+00  0.00000000E+00
  0.00000000E+00  0.00000000E+00  0.00000000E+00
  0.00000000E+00  0.00000000E+00  0.00000000E+00
  0.00000000E+00  0.00000000E+00  0.00000000E+00
  0.00000000E+00  0.00000000E+00  0.00000000E+00
  0.00000000E+00  0.00000000E+00  0.00000000E+00
  0.00000000E+00  0.00000000E+00  0.00000000E+00
  0.00000000E+00  0.00000000E+00  0.00000000E+00
