 C  N  H Mn                             
   1.00000000000000     
    11.1330987791903588  -19.2844538331259692    0.0000000000000000
    11.1330987791903588   19.2844538331259692    0.0000000000000000
     0.0000000000000000    0.0000000000000000   16.0000000000000000
   C    N    H    Mn
   194     8    16     1
Direct
 -0.0000004253819660  0.0000034467470479  0.1126612206532597
  0.0370595546099889  0.0740907863749946  0.1127449731292491
  0.0000147381843570  0.1111205691011230  0.1126865256909263
  0.0370698831533989  0.1852033599261373  0.1127489314569415
  0.0000232730156186  0.2222371518750666  0.1126719527565260
  0.0370714667789702  0.2963136769709083  0.1126492678456050
  0.0000180559467460  0.3333413335701475  0.1126398453208014
  0.0370757923031900  0.4074240882972714  0.1125389266484995
  0.0000080571047403  0.4444407908844437  0.1126722689005359
  0.0370548007995482  0.5185159021388582  0.1126437978037747
  0.9999940204524993  0.5555463744967685  0.1127330285018485
  0.0370299795021489  0.6296157814439042  0.1126999110300478
  0.9999765323402956  0.6666479004011068  0.1126796806747658
  0.0370209217298247  0.7407285888612380  0.1126149524282479
  0.9999776286837981  0.7777626587961232  0.1125995933772830
  0.0370287862554995  0.8518479008316475  0.1125776371434715
  0.9999888287980182  0.8888865408441481  0.1126037547066480
  0.0370410748846083  0.9629681158518726  0.1126583396163115
  0.1111281797738834  0.0000286710468948  0.1127631403730329
  0.1481839683301076  0.0741146208188076  0.1129415944198029
  0.1111441700274334  0.1111459457273982  0.1129245355053565
  0.1481900688207078  0.1852164640340781  0.1130489805540876
  0.1111514105244888  0.2222489665500834  0.1129189603060518
  0.1481968364901802  0.2963284926512697  0.1128730740334340
  0.1111615992528660  0.3333681063465077  0.1126150735782900
  0.1482015690745517  0.4074357492398745  0.1122786767022291
  0.1111620839131233  0.4444625870721463  0.1122000085446926
  0.1481988581808195  0.5185135275269700  0.1119978863086897
  0.1111410571112911  0.5555316252249524  0.1123907316096677
  0.1481669137280508  0.6296097055293823  0.1125123380035048
  0.1111174687378845  0.6666471183344658  0.1126547616993471
  0.1481500745915436  0.7407294095273463  0.1126252271278430
  0.1111054600357266  0.7777704798955102  0.1125947025080017
  0.1481440609730246  0.8518481996851549  0.1125842575888850
  0.1111080492176991  0.8888950155766681  0.1125973680361143
  0.1481561044876148  0.9629826802538604  0.1127181852637307
  0.2222387930326493  0.0000409047303448  0.1127952059464011
  0.2592726246961845  0.0741201408607037  0.1129729085843355
  0.2222493889082107  0.1111637317555945  0.1130748995756780
  0.2592837876608458  0.1852279224024757  0.1132484775981644
  0.2222570317905132  0.2222567323698058  0.1132393685335576
  0.2592718769068950  0.2963158149541271  0.1133315704948094
  0.2222591589627801  0.3333645370958573  0.1130445729084269
  0.2592606194448504  0.4074173182391799  0.1128637232873222
  0.2222536705559512  0.4444638860367259  0.1122997923146665
  0.2592744798042994  0.5185140144818093  0.1120881825361042
  0.2222550712244933  0.5555333093277448  0.1118254080634180
  0.2592784051121624  0.6295812545224578  0.1120231359801208
  0.2222504150712164  0.6666288997497070  0.1123570466837655
  0.2592640635798205  0.7407075083065753  0.1125567492825456
  0.2222252630059947  0.7777594380709207  0.1126109839031900
  0.2592594023495410  0.8518458594012366  0.1126073282076304
  0.2222253275317931  0.8888926006435414  0.1126109842193000
  0.2592645044995586  0.9629820000322863  0.1126976758782237
  0.3333357328480773  0.0000205206673995  0.1127123446421711
  0.3703665550037915  0.0741089430860280  0.1128373040866726
  0.3333416804103134  0.1111608193352069  0.1129860689424853
  0.3703757276114446  0.1852325972963565  0.1131122931481600
  0.3333360374789940  0.2222527299965525  0.1133168382447866
  0.3703707324348588  0.2963086522816289  0.1135436304561274
  0.3333258440849765  0.3333337060852710  0.1136394546804207
  0.3703382123718471  0.4073978464767893  0.1138397881041552
  0.3333219434560854  0.4444481157819528  0.1133652436735088
  0.3703572918632130  0.5185160124763059  0.1132345640714119
  0.3333236593137477  0.5555428585349023  0.1125591834617816
  0.3703693556478541  0.6295867280665900  0.1125788869022153
  0.3333296753383759  0.6666083827408897  0.1123350025089651
  0.3703647104436052  0.7406863408210043  0.1126107441268132
  0.3333432301221166  0.7777461046281230  0.1125997748875109
  0.3703725345911995  0.8518338813958728  0.1126244731688042
  0.3333381607165176  0.8888855551819985  0.1126031986448428
  0.3703668565577272  0.9629653785817963  0.1126266361256502
  0.4444421324394756  0.0000034514403278  0.1126145713918700
  0.4814727407544657  0.0740891796016338  0.1126612605110281
  0.4444432752554929  0.1111462867265944  0.1127769572340209
  0.4814682524485885  0.1852246252594249  0.1127719332935809
  0.4444329258993705  0.2222625558516288  0.1129428151808621
  0.4814845038924229  0.2963268583956104  0.1129495297883274
  0.4444385298959262  0.3333298027952201  0.1134319506053314
  0.4814867176144071  0.4073906407901980  0.1137425091324957
  0.4444309722353891  0.4444290176464104  0.1141296855367722
  0.4814773619736221  0.5185221619781709  0.1141108876936941
  0.4444239016511486  0.5555552360962048  0.1137019660359486
  0.4814735479180907  0.6296145830919545  0.1134246319196755
  0.4444269883023564  0.6666167613024967  0.1130106499179474
  0.4814778673493927  0.7406873390285547  0.1129949405834980
  0.4444453751228195  0.7777304775847067  0.1128111177844831
  0.4814711898996730  0.8518109666214599  0.1127724350273179
  0.4444414052203209  0.8888673641916431  0.1126482501769868
  0.4814725510348277  0.9629532707138179  0.1126078063894103
  0.5555479002460886  0.9999912335313601  0.1126173352685443
  0.5925765304470487  0.0740706351448275  0.1126060743288443
  0.5555416845617658  0.1111227309469006  0.1126239908716792
  0.5925701299072520  0.1852096324781012  0.1125595544649555
  0.5555479224969597  0.2222694739382075  0.1125216565114471
  0.5925840442557582  0.2963427135787556  0.1122012525247243
  0.5555392795735395  0.3333559167366039  0.1125084709696262
  0.5925846864098462  0.4074003235828086  0.1126441571855933
  0.5555562860785892  0.4444313278847643  0.1133301873343896
  0.5925868345174239  0.5185010736593382  0.1135001557078830
  0.5555689945771791  0.5555502439106176  0.1138822163141292
  0.5925850129079001  0.6296164075566814  0.1136631426865164
  0.5555398998555486  0.6666386518726418  0.1135297885489221
  0.5925780241634041  0.7406947125957249  0.1132873012220413
  0.5555397748874099  0.7777174340392361  0.1131195405805672
  0.5925726318518232  0.8517937710900605  0.1129787069964069
  0.5555471727009369  0.8888480295893836  0.1128151800078305
  0.5925797641502625  0.9629371062087200  0.1126938141144991
  0.6666510208717045  0.9999750388350619  0.1126802744991022
  0.7036900543826967  0.0740639276503210  0.1126111095134370
  0.6666545262836238  0.1111096177984832  0.1126069967334090
  0.7036880109930379  0.1851961395387656  0.1125996627374558
  0.6666497549134969  0.2222495268385398  0.1124971091791409
  0.7036610169819437  0.2963262982817220  0.1122630733514071
  0.6666327385368820  0.3333676385233545  0.1119306618807728
  0.7036601712438506  0.4074115244778225  0.1119262902581860
  0.6666398232524519  0.4444309062588579  0.1123167617958350
  0.7036596214708063  0.5184842727691058  0.1126415374683332
  0.6666500898776668  0.5555332962474542  0.1131223088919527
  0.7036552310561628  0.6295891791084210  0.1132133704874669
  0.6666396584842706  0.6666370335178050  0.1133939272299832
  0.7036589017150137  0.7406972051452574  0.1132267970334626
  0.6666301956338195  0.7777216793105032  0.1132054426321952
  0.7036671366065110  0.8517879143671306  0.1130314919120173
  0.6666450714455612  0.8888352221892597  0.1129477511575915
  0.7036791382604233  0.9629175956371364  0.1127762526055728
  0.7777616404381511  0.9999742262044574  0.1126975609134239
  0.8148089631795133  0.0740620079115449  0.1125971237330285
  0.7777711235772551  0.1111071352728712  0.1125887718565893
  0.8148086736716793  0.1851841992615536  0.1126101165481731
  0.7777632245837037  0.2222250090268592  0.1126252259780213
  0.8147937195175089  0.2963069497598241  0.1126547952642138
  0.7777423855276665  0.3333445602922497  0.1124852931043154
  0.8147693060214676  0.4074186153673645  0.1124359258905771
  0.7777117396426786  0.4444340889719736  0.1121468398610861
  0.8147499385996885  0.5184849367082721  0.1124241328612664
  0.7777139736785136  0.5555152844881274  0.1125932752572760
  0.8147544386363014  0.6295870835072498  0.1128069026957103
  0.7777197497244102  0.6666258147141599  0.1130077185870188
  0.8147640330025777  0.7407048967047904  0.1129553069980729
  0.7777239158684097  0.7777358421185516  0.1130390273086363
  0.8147722268652045  0.8518063447407832  0.1129005553605270
  0.7777332595832700  0.8888391986808069  0.1129025200593828
  0.8147893301182972  0.9629268254617158  0.1127429899587899
  0.8888764152038485  0.9999871996274694  0.1126493658659937
  0.9259277098551777  0.0740684064035606  0.1126094268767845
  0.8888875985471140  0.1111072457618591  0.1125840892533356
  0.9259375147444640  0.1851915849415810  0.1126112841410912
  0.8888928774638156  0.2222250171150860  0.1126277682763477
  0.9259353050601158  0.2963042645229992  0.1126812202715663
  0.8888808619988019  0.3333365782856593  0.1127050786513330
  0.9259157638181809  0.4074055643984920  0.1127372669574230
  0.8888544607849582  0.4444347050509391  0.1126795144593048
  0.9259031855535079  0.5185111798721147  0.1127186955919506
  0.8888363978216784  0.5555273023284373  0.1126463218449640
  0.9258933169814708  0.6296092711532946  0.1127004110567334
  0.8888423722957315  0.6666394197110237  0.1127264038031437
  0.9258911967272319  0.7407160472039556  0.1126887197716369
  0.8888452917586451  0.7777498576901771  0.1127551070552077
  0.9259020141723011  0.8518336811045367  0.1126788729406999
  0.8888573132412387  0.8888631955425249  0.1127279096815148
  0.9259175964387367  0.9629512235358364  0.1126557296398318
  0.2670241976364371  0.1335090712870764  0.3757517294755534
  0.3360912554254879  0.1866878509766653  0.3686110751404352
  0.3490963644474329  0.2552304082746204  0.3630409911903626
  0.2938037539758347  0.2697793036064864  0.3639147251700577
  0.2244173699201094  0.2160943224974125  0.3706752372709449
  0.2118059005722132  0.1480738056734066  0.3768766596180309
  0.3249153206391646  0.3446565345530319  0.3581791467421710
  0.4130898355195004  0.3215296666550755  0.3572420653098516
  0.3173143752200285  0.4455537923900798  0.3514216445100694
  0.3949093615845060  0.5608153335867928  0.3529817479626745
  0.2775399572352033  0.4814646698532477  0.3455682227473487
  0.3259397392351707  0.5533974442787246  0.3470015283979378
  0.3042055327955284  0.6025138510927975  0.3422261357294999
  0.2327649066976974  0.5778447832353260  0.3352794809678175
  0.1844038641342187  0.5059352989485320  0.3333395038402838
  0.2061629520759865  0.4567947122473310  0.3386477749841974
  0.5340039293729901  0.3888887685865440  0.3517186205444706
  0.6115693481478595  0.5040747451548916  0.3567425757619591
  0.6250403668333859  0.3477157129641562  0.3386878451626261
  0.6966709167621385  0.3726457533727434  0.3346099094053383
  0.7450566397689615  0.4444618473105225  0.3390148909992241
  0.7230850707943549  0.4932757218991438  0.3471944375220572
  0.6515140029715304  0.4683663043356587  0.3506544948893428
  0.6031123050788849  0.3964992179369452  0.3467816489684661
  0.6038537185146585  0.6049001744089513  0.3637188064886994
  0.5157522494455692  0.6280820722841522  0.3606383464861720
  0.6350123356108862  0.6798501710770842  0.3676287512838890
  0.7045009438484865  0.7336648749268722  0.3720085338283050
  0.7172907220574577  0.8018934732524879  0.3736314335592585
  0.6621238501014984  0.8164947252572512  0.3708092955548740
  0.5929302425328988  0.7631523539562916  0.3666496732366031
  0.5797736373999282  0.6944361943105885  0.3652315559448946
  0.3970593652794205  0.3747425453960240  0.3556660449042469
  0.2882054320194429  0.3771016062381238  0.3544898470747678
  0.3883051315792129  0.4947532589923929  0.3544712621059510
  0.4759768936100699  0.3279674650258616  0.3533700708818148
  0.5405512541943264  0.4548687336993801  0.3560880545839359
  0.6406000142422883  0.5724543772244112  0.3614998465596223
  0.5317347023880430  0.5748230893418939  0.3602123573807366
  0.4528994223086140  0.6216910885891562  0.3564628456639806
  0.2551144501910125  0.0796862996563223  0.3810831319040811
  0.3788534622795605  0.1759178770718286  0.3680235236015125
  0.1822796269650118  0.2277807737053544  0.3717715067461113
  0.1585378206692239  0.1051451717260766  0.3831750894857680
  0.3419641334218776  0.6579361681707516  0.3434941749404027
  0.2140588854139982  0.6147204222588057  0.3307089303096038
  0.1291904905866131  0.4885177657614749  0.3270215200402191
  0.1692303102976978  0.4011703576400635  0.3369118808936642
  0.5873086799422972  0.2923772124935223  0.3349923168350025
  0.7155297959698605  0.3360781998118672  0.3272875539104292
  0.8004743925216581  0.4621027566365847  0.3354371838819969
  0.7600104212360245  0.5488587399921274  0.3503833739232997
  0.7466020705121922  0.7219514144073865  0.3740964831077122
  0.7706898993764694  0.8449956093751795  0.3771265078500141
  0.6742060932221986  0.8705162617128658  0.3719742103015009
  0.5502155882640374  0.7739562753885890  0.3644566447639568
  0.4644132843457549  0.4747977904088355  0.3560550837255008
 
  0.00000000E+00  0.00000000E+00  0.00000000E+00
  0.00000000E+00  0.00000000E+00  0.00000000E+00
  0.00000000E+00  0.00000000E+00  0.00000000E+00
  0.00000000E+00  0.00000000E+00  0.00000000E+00
  0.00000000E+00  0.00000000E+00  0.00000000E+00
  0.00000000E+00  0.00000000E+00  0.00000000E+00
  0.00000000E+00  0.00000000E+00  0.00000000E+00
  0.00000000E+00  0.00000000E+00  0.00000000E+00
  0.00000000E+00  0.00000000E+00  0.00000000E+00
  0.00000000E+00  0.00000000E+00  0.00000000E+00
  0.00000000E+00  0.00000000E+00  0.00000000E+00
  0.00000000E+00  0.00000000E+00  0.00000000E+00
  0.00000000E+00  0.00000000E+00  0.00000000E+00
  0.00000000E+00  0.00000000E+00  0.00000000E+00
  0.00000000E+00  0.00000000E+00  0.00000000E+00
  0.00000000E+00  0.00000000E+00  0.00000000E+00
  0.00000000E+00  0.00000000E+00  0.00000000E+00
  0.00000000E+00  0.00000000E+00  0.00000000E+00
  0.00000000E+00  0.00000000E+00  0.00000000E+00
  0.00000000E+00  0.00000000E+00  0.00000000E+00
  0.00000000E+00  0.00000000E+00  0.00000000E+00
  0.00000000E+00  0.00000000E+00  0.00000000E+00
  0.00000000E+00  0.00000000E+00  0.00000000E+00
  0.00000000E+00  0.00000000E+00  0.00000000E+00
  0.00000000E+00  0.00000000E+00  0.00000000E+00
  0.00000000E+00  0.00000000E+00  0.00000000E+00
  0.00000000E+00  0.00000000E+00  0.00000000E+00
  0.00000000E+00  0.00000000E+00  0.00000000E+00
  0.00000000E+00  0.00000000E+00  0.00000000E+00
  0.00000000E+00  0.00000000E+00  0.00000000E+00
  0.00000000E+00  0.00000000E+00  0.00000000E+00
  0.00000000E+00  0.00000000E+00  0.00000000E+00
  0.00000000E+00  0.00000000E+00  0.00000000E+00
  0.00000000E+00  0.00000000E+00  0.00000000E+00
  0.00000000E+00  0.00000000E+00  0.00000000E+00
  0.00000000E+00  0.00000000E+00  0.00000000E+00
  0.00000000E+00  0.00000000E+00  0.00000000E+00
  0.00000000E+00  0.00000000E+00  0.00000000E+00
  0.00000000E+00  0.00000000E+00  0.00000000E+00
  0.00000000E+00  0.00000000E+00  0.00000000E+00
  0.00000000E+00  0.00000000E+00  0.00000000E+00
  0.00000000E+00  0.00000000E+00  0.00000000E+00
  0.00000000E+00  0.00000000E+00  0.00000000E+00
  0.00000000E+00  0.00000000E+00  0.00000000E+00
  0.00000000E+00  0.00000000E+00  0.00000000E+00
  0.00000000E+00  0.00000000E+00  0.00000000E+00
  0.00000000E+00  0.00000000E+00  0.00000000E+00
  0.00000000E+00  0.00000000E+00  0.00000000E+00
  0.00000000E+00  0.00000000E+00  0.00000000E+00
  0.00000000E+00  0.00000000E+00  0.00000000E+00
  0.00000000E+00  0.00000000E+00  0.00000000E+00
  0.00000000E+00  0.00000000E+00  0.00000000E+00
  0.00000000E+00  0.00000000E+00  0.00000000E+00
  0.00000000E+00  0.00000000E+00  0.00000000E+00
  0.00000000E+00  0.00000000E+00  0.00000000E+00
  0.00000000E+00  0.00000000E+00  0.00000000E+00
  0.00000000E+00  0.00000000E+00  0.00000000E+00
  0.00000000E+00  0.00000000E+00  0.00000000E+00
  0.00000000E+00  0.00000000E+00  0.00000000E+00
  0.00000000E+00  0.00000000E+00  0.00000000E+00
  0.00000000E+00  0.00000000E+00  0.00000000E+00
  0.00000000E+00  0.00000000E+00  0.00000000E+00
  0.00000000E+00  0.00000000E+00  0.00000000E+00
  0.00000000E+00  0.00000000E+00  0.00000000E+00
  0.00000000E+00  0.00000000E+00  0.00000000E+00
  0.00000000E+00  0.00000000E+00  0.00000000E+00
  0.00000000E+00  0.00000000E+00  0.00000000E+00
  0.00000000E+00  0.00000000E+00  0.00000000E+00
  0.00000000E+00  0.00000000E+00  0.00000000E+00
  0.00000000E+00  0.00000000E+00  0.00000000E+00
  0.00000000E+00  0.00000000E+00  0.00000000E+00
  0.00000000E+00  0.00000000E+00  0.00000000E+00
  0.00000000E+00  0.00000000E+00  0.00000000E+00
  0.00000000E+00  0.00000000E+00  0.00000000E+00
  0.00000000E+00  0.00000000E+00  0.00000000E+00
  0.00000000E+00  0.00000000E+00  0.00000000E+00
  0.00000000E+00  0.00000000E+00  0.00000000E+00
  0.00000000E+00  0.00000000E+00  0.00000000E+00
  0.00000000E+00  0.00000000E+00  0.00000000E+00
  0.00000000E+00  0.00000000E+00  0.00000000E+00
  0.00000000E+00  0.00000000E+00  0.00000000E+00
  0.00000000E+00  0.00000000E+00  0.00000000E+00
  0.00000000E+00  0.00000000E+00  0.00000000E+00
  0.00000000E+00  0.00000000E+00  0.00000000E+00
  0.00000000E+00  0.00000000E+00  0.00000000E+00
  0.00000000E+00  0.00000000E+00  0.00000000E+00
  0.00000000E+00  0.00000000E+00  0.00000000E+00
  0.00000000E+00  0.00000000E+00  0.00000000E+00
  0.00000000E+00  0.00000000E+00  0.00000000E+00
  0.00000000E+00  0.00000000E+00  0.00000000E+00
  0.00000000E+00  0.00000000E+00  0.00000000E+00
  0.00000000E+00  0.00000000E+00  0.00000000E+00
  0.00000000E+00  0.00000000E+00  0.00000000E+00
  0.00000000E+00  0.00000000E+00  0.00000000E+00
  0.00000000E+00  0.00000000E+00  0.00000000E+00
  0.00000000E+00  0.00000000E+00  0.00000000E+00
  0.00000000E+00  0.00000000E+00  0.00000000E+00
  0.00000000E+00  0.00000000E+00  0.00000000E+00
  0.00000000E+00  0.00000000E+00  0.00000000E+00
  0.00000000E+00  0.00000000E+00  0.00000000E+00
  0.00000000E+00  0.00000000E+00  0.00000000E+00
  0.00000000E+00  0.00000000E+00  0.00000000E+00
  0.00000000E+00  0.00000000E+00  0.00000000E+00
  0.00000000E+00  0.00000000E+00  0.00000000E+00
  0.00000000E+00  0.00000000E+00  0.00000000E+00
  0.00000000E+00  0.00000000E+00  0.00000000E+00
  0.00000000E+00  0.00000000E+00  0.00000000E+00
  0.00000000E+00  0.00000000E+00  0.00000000E+00
  0.00000000E+00  0.00000000E+00  0.00000000E+00
  0.00000000E+00  0.00000000E+00  0.00000000E+00
  0.00000000E+00  0.00000000E+00  0.00000000E+00
  0.00000000E+00  0.00000000E+00  0.00000000E+00
  0.00000000E+00  0.00000000E+00  0.00000000E+00
  0.00000000E+00  0.00000000E+00  0.00000000E+00
  0.00000000E+00  0.00000000E+00  0.00000000E+00
  0.00000000E+00  0.00000000E+00  0.00000000E+00
  0.00000000E+00  0.00000000E+00  0.00000000E+00
  0.00000000E+00  0.00000000E+00  0.00000000E+00
  0.00000000E+00  0.00000000E+00  0.00000000E+00
  0.00000000E+00  0.00000000E+00  0.00000000E+00
  0.00000000E+00  0.00000000E+00  0.00000000E+00
  0.00000000E+00  0.00000000E+00  0.00000000E+00
  0.00000000E+00  0.00000000E+00  0.00000000E+00
  0.00000000E+00  0.00000000E+00  0.00000000E+00
  0.00000000E+00  0.00000000E+00  0.00000000E+00
  0.00000000E+00  0.00000000E+00  0.00000000E+00
  0.00000000E+00  0.00000000E+00  0.00000000E+00
  0.00000000E+00  0.00000000E+00  0.00000000E+00
  0.00000000E+00  0.00000000E+00  0.00000000E+00
  0.00000000E+00  0.00000000E+00  0.00000000E+00
  0.00000000E+00  0.00000000E+00  0.00000000E+00
  0.00000000E+00  0.00000000E+00  0.00000000E+00
  0.00000000E+00  0.00000000E+00  0.00000000E+00
  0.00000000E+00  0.00000000E+00  0.00000000E+00
  0.00000000E+00  0.00000000E+00  0.00000000E+00
  0.00000000E+00  0.00000000E+00  0.00000000E+00
  0.00000000E+00  0.00000000E+00  0.00000000E+00
  0.00000000E+00  0.00000000E+00  0.00000000E+00
  0.00000000E+00  0.00000000E+00  0.00000000E+00
  0.00000000E+00  0.00000000E+00  0.00000000E+00
  0.00000000E+00  0.00000000E+00  0.00000000E+00
  0.00000000E+00  0.00000000E+00  0.00000000E+00
  0.00000000E+00  0.00000000E+00  0.00000000E+00
  0.00000000E+00  0.00000000E+00  0.00000000E+00
  0.00000000E+00  0.00000000E+00  0.00000000E+00
  0.00000000E+00  0.00000000E+00  0.00000000E+00
  0.00000000E+00  0.00000000E+00  0.00000000E+00
  0.00000000E+00  0.00000000E+00  0.00000000E+00
  0.00000000E+00  0.00000000E+00  0.00000000E+00
  0.00000000E+00  0.00000000E+00  0.00000000E+00
  0.00000000E+00  0.00000000E+00  0.00000000E+00
  0.00000000E+00  0.00000000E+00  0.00000000E+00
  0.00000000E+00  0.00000000E+00  0.00000000E+00
  0.00000000E+00  0.00000000E+00  0.00000000E+00
  0.00000000E+00  0.00000000E+00  0.00000000E+00
  0.00000000E+00  0.00000000E+00  0.00000000E+00
  0.00000000E+00  0.00000000E+00  0.00000000E+00
  0.00000000E+00  0.00000000E+00  0.00000000E+00
  0.00000000E+00  0.00000000E+00  0.00000000E+00
  0.00000000E+00  0.00000000E+00  0.00000000E+00
  0.00000000E+00  0.00000000E+00  0.00000000E+00
  0.00000000E+00  0.00000000E+00  0.00000000E+00
  0.00000000E+00  0.00000000E+00  0.00000000E+00
  0.00000000E+00  0.00000000E+00  0.00000000E+00
  0.00000000E+00  0.00000000E+00  0.00000000E+00
  0.00000000E+00  0.00000000E+00  0.00000000E+00
  0.00000000E+00  0.00000000E+00  0.00000000E+00
  0.00000000E+00  0.00000000E+00  0.00000000E+00
  0.00000000E+00  0.00000000E+00  0.00000000E+00
  0.00000000E+00  0.00000000E+00  0.00000000E+00
  0.00000000E+00  0.00000000E+00  0.00000000E+00
  0.00000000E+00  0.00000000E+00  0.00000000E+00
  0.00000000E+00  0.00000000E+00  0.00000000E+00
  0.00000000E+00  0.00000000E+00  0.00000000E+00
  0.00000000E+00  0.00000000E+00  0.00000000E+00
  0.00000000E+00  0.00000000E+00  0.00000000E+00
  0.00000000E+00  0.00000000E+00  0.00000000E+00
  0.00000000E+00  0.00000000E+00  0.00000000E+00
  0.00000000E+00  0.00000000E+00  0.00000000E+00
  0.00000000E+00  0.00000000E+00  0.00000000E+00
  0.00000000E+00  0.00000000E+00  0.00000000E+00
  0.00000000E+00  0.00000000E+00  0.00000000E+00
  0.00000000E+00  0.00000000E+00  0.00000000E+00
  0.00000000E+00  0.00000000E+00  0.00000000E+00
  0.00000000E+00  0.00000000E+00  0.00000000E+00
  0.00000000E+00  0.00000000E+00  0.00000000E+00
  0.00000000E+00  0.00000000E+00  0.00000000E+00
  0.00000000E+00  0.00000000E+00  0.00000000E+00
  0.00000000E+00  0.00000000E+00  0.00000000E+00
  0.00000000E+00  0.00000000E+00  0.00000000E+00
  0.00000000E+00  0.00000000E+00  0.00000000E+00
  0.00000000E+00  0.00000000E+00  0.00000000E+00
  0.00000000E+00  0.00000000E+00  0.00000000E+00
  0.00000000E+00  0.00000000E+00  0.00000000E+00
  0.00000000E+00  0.00000000E+00  0.00000000E+00
  0.00000000E+00  0.00000000E+00  0.00000000E+00
  0.00000000E+00  0.00000000E+00  0.00000000E+00
  0.00000000E+00  0.00000000E+00  0.00000000E+00
  0.00000000E+00  0.00000000E+00  0.00000000E+00
  0.00000000E+00  0.00000000E+00  0.00000000E+00
  0.00000000E+00  0.00000000E+00  0.00000000E+00
  0.00000000E+00  0.00000000E+00  0.00000000E+00
  0.00000000E+00  0.00000000E+00  0.00000000E+00
  0.00000000E+00  0.00000000E+00  0.00000000E+00
  0.00000000E+00  0.00000000E+00  0.00000000E+00
  0.00000000E+00  0.00000000E+00  0.00000000E+00
  0.00000000E+00  0.00000000E+00  0.00000000E+00
  0.00000000E+00  0.00000000E+00  0.00000000E+00
  0.00000000E+00  0.00000000E+00  0.00000000E+00
  0.00000000E+00  0.00000000E+00  0.00000000E+00
  0.00000000E+00  0.00000000E+00  0.00000000E+00
  0.00000000E+00  0.00000000E+00  0.00000000E+00
  0.00000000E+00  0.00000000E+00  0.00000000E+00
  0.00000000E+00  0.00000000E+00  0.00000000E+00
  0.00000000E+00  0.00000000E+00  0.00000000E+00
  0.00000000E+00  0.00000000E+00  0.00000000E+00
  0.00000000E+00  0.00000000E+00  0.00000000E+00
  0.00000000E+00  0.00000000E+00  0.00000000E+00
  0.00000000E+00  0.00000000E+00  0.00000000E+00
