 C  N Cu                                
   1.00000000000000     
     8.4449880993002751    0.0000032856627321   -0.0003782079602486
     0.0000038309380674    8.4084719824080736    0.0000428686777844
    -0.0008917451919753    0.0001011477850995   19.8251156599368770
   C    N    Cu
    22     2     1
Direct
  0.4971216517969744  0.0856628634066737  0.1543016298046548
  0.3517417852190770  0.1668161891170906  0.1542848011469410
  0.6416997136881666  0.1698404651803657  0.1542665958570348
  0.7940170336104676  0.9165288591755271  0.1540308662930872
  0.7940232465458861  0.0834057118596736  0.1540376063264100
  0.9161825632835413  0.2045517438533003  0.1540053874387111
  0.8361298094586933  0.3561950005003721  0.1542133646328821
  0.2031578240350858  0.0842871806989867  0.1540525118327567
  0.0839428480487294  0.2036465155403543  0.1540214121098781
  0.1705583964484880  0.3531689352444313  0.1542373631822279
  0.0913781269893643  0.4999793700594325  0.1542479173377680
  0.1705525297743779  0.6467786205047277  0.1542534545250040
  0.3517356106902989  0.8331369626868754  0.1542926223142822
  0.2031488805081323  0.9156656416222223  0.1540619379217527
  0.0839343474070877  0.7963035082829905  0.1540381582120540
  0.6416888018048564  0.8300967869873066  0.1542495004075020
  0.8361241858677482  0.6437449096743204  0.1542104554507860
  0.9161764150993097  0.7953914765387090  0.1540085180791153
  0.4971137704764081  0.9142778615175714  0.1542982371733219
  0.9208340704831824  0.4999739794944401  0.1542123715553763
  0.6676632412075900  0.3365238563859006  0.1543936101427381
  0.6676547757877500  0.6634153907727653  0.1543727320849299
  0.3318989924672221  0.3304431822955548  0.1544029742661015
  0.3318930687584269  0.6695067760086127  0.1544159191110176
  0.4999778704742449  0.4999711301799659  0.1545030626144604
 
  0.00000000E+00  0.00000000E+00  0.00000000E+00
  0.00000000E+00  0.00000000E+00  0.00000000E+00
  0.00000000E+00  0.00000000E+00  0.00000000E+00
  0.00000000E+00  0.00000000E+00  0.00000000E+00
  0.00000000E+00  0.00000000E+00  0.00000000E+00
  0.00000000E+00  0.00000000E+00  0.00000000E+00
  0.00000000E+00  0.00000000E+00  0.00000000E+00
  0.00000000E+00  0.00000000E+00  0.00000000E+00
  0.00000000E+00  0.00000000E+00  0.00000000E+00
  0.00000000E+00  0.00000000E+00  0.00000000E+00
  0.00000000E+00  0.00000000E+00  0.00000000E+00
  0.00000000E+00  0.00000000E+00  0.00000000E+00
  0.00000000E+00  0.00000000E+00  0.00000000E+00
  0.00000000E+00  0.00000000E+00  0.00000000E+00
  0.00000000E+00  0.00000000E+00  0.00000000E+00
  0.00000000E+00  0.00000000E+00  0.00000000E+00
  0.00000000E+00  0.00000000E+00  0.00000000E+00
  0.00000000E+00  0.00000000E+00  0.00000000E+00
  0.00000000E+00  0.00000000E+00  0.00000000E+00
  0.00000000E+00  0.00000000E+00  0.00000000E+00
  0.00000000E+00  0.00000000E+00  0.00000000E+00
  0.00000000E+00  0.00000000E+00  0.00000000E+00
  0.00000000E+00  0.00000000E+00  0.00000000E+00
  0.00000000E+00  0.00000000E+00  0.00000000E+00
  0.00000000E+00  0.00000000E+00  0.00000000E+00
