 C  N  H Ti                             
   1.00000000000000     
    26.4341030530662273    0.0000000000000000    0.0000000000000000
     0.0000000000000000   26.4552104293320980    0.0000000000000000
     0.0000000000000000    0.0000000000000000   25.0000000000000000
   C    N    H    Ti
    60     8    32     1
Direct
  0.2515296618926799  0.1956822863256722  0.2008020234747807
  0.2031110106850255  0.1706766633336631  0.1993249429157712
  0.1663526824103167  0.2075473580166630  0.1993286683159998
  0.1914078600602473  0.2558888147939221  0.2008383355138237
  0.3470980714215963  0.1957029747288595  0.1991985566184934
  0.3955045138693267  0.1707073952739954  0.2006373517276229
  0.4072262844152495  0.2559145071012457  0.1991743348243793
  0.4322705885572884  0.2075858295488624  0.2006407954897694
  0.2515385534746075  0.4117123130713161  0.1992340131092389
  0.1914368000451377  0.3514507219603028  0.1992170475957998
  0.2031062388102304  0.4366559222861253  0.2006618031326994
  0.1663607255650527  0.3997511606772534  0.2006690366756029
  0.4072017987142458  0.3514754129118718  0.2008238743567691
  0.4322665047510475  0.3998111678659469  0.1993188761143502
  0.3470949469472812  0.4117163816211329  0.2007917864805957
  0.3955260540303696  0.4366957377155012  0.1993002944381782
  0.2993314249738347  0.4362339011339810  0.2000271833942221
  0.1670081815991346  0.3036586767028893  0.2000567053027833
  0.2993070063365624  0.1712077035947707  0.2000113467137125
  0.2992715963271291  0.1146494451307299  0.1999905087160250
  0.3195226917857596  0.0870597958377757  0.1565240230415883
  0.2788946918649063  0.0870214012992808  0.2433717133481125
  0.3197689527666611  0.0342875669685539  0.1561023316055625
  0.2787324485133544  0.0342521289348274  0.2437566957871488
  0.2993386752823160  0.0071516568120730  0.1999586619249224
  0.4316462990199464  0.3037097261057751  0.2000068212423375
  0.2993485139569447  0.4928303760237728  0.2000344283179275
  0.4882859796562202  0.3037403191414881  0.2000215813690654
  0.1103731983829335  0.3036328117764074  0.2000039833704699
  0.2790804347027945  0.5204611469389182  0.1565905720096002
  0.5158990180822569  0.2835029489748078  0.1565525235140977
  0.0827838836811031  0.3239006116238569  0.1565305213115737
  0.3196716166207277  0.5204802207814885  0.2434325287953238
  0.5159088919410867  0.3240534198144251  0.2434386280704427
  0.0827015944919129  0.2833071915480199  0.2433898908289742
  0.2789065699718206  0.5732399988256330  0.1561543437161721
  0.5687077946223486  0.2833107000258673  0.1561349537310555
  0.0299671617928909  0.3241638559989938  0.1561044946837317
  0.3199008737749758  0.5732616715559135  0.2438115012706023
  0.5687196912258125  0.3242364700097941  0.2438443552562183
  0.0298852292738732  0.2831867706864028  0.2437698755334514
  0.2993819100994949  0.6003879500684463  0.1999921354827210
  0.5958388133724019  0.3037294430130900  0.2000070067257059
  0.0027777867294154  0.3037449988656306  0.1999445582691337
  0.6930469070196920  0.3035898309867712  0.2000500842723406
  0.9055473102651247  0.3037785747894355  0.1999985693710632
  0.2992697919017965  0.6975617973357977  0.2000604623143875
  0.2994859369473706  0.9099935565204492  0.2000269820505745
  0.7445713991874523  0.3036011847108444  0.1999977414208082
  0.7734857254791913  0.2565335655076800  0.1998168752753022
  0.7733795819050062  0.3507338907785634  0.2001615414617886
  0.8251822768776051  0.2566007483376105  0.2002587214786974
  0.8250731566980818  0.3507794895437711  0.1996974345522630
  0.8540031602730567  0.3037199045579288  0.1999855536029465
  0.2992860137214681  0.7490680841164354  0.1999968714179421
  0.3464350819344674  0.7778860448169562  0.2001826099269456
  0.2522201283517698  0.7780138805346775  0.1997759447031637
  0.3465032409642728  0.8295422981942600  0.1997272018589860
  0.2522853016405852  0.8296786189051466  0.2002211852525870
  0.2994316941049158  0.8584932020791800  0.1999925122082455
  0.2437546190305589  0.2479731930493284  0.2015213926217451
  0.2437847706667551  0.3594068842176048  0.1985309461818410
  0.3548810173273616  0.2479956505127012  0.1984942042107511
  0.3548522576843547  0.3594113969283284  0.2015077934836448
  0.6476768706000942  0.3036770638313088  0.1999914217129533
  0.9509225710953557  0.3038168951904388  0.1999337216867110
  0.2993613948139213  0.6522120219101089  0.1999243039862052
  0.2994442285092894  0.9553372522463364  0.1999881301697051
  0.1973718999714265  0.1301013307314817  0.1979808610958933
  0.1257283884035102  0.2018615011876791  0.1979756885948050
  0.4012732233702529  0.1301356569710140  0.2019340880165518
  0.4729035837359310  0.2019265983509446  0.2019576037609149
  0.1973192611320126  0.4772268516170988  0.2019289731473930
  0.1257280520909493  0.4053721815215384  0.2019672943432194
  0.4728977131926041  0.4054427225932181  0.1979875839233515
  0.4013007757748565  0.4772660454980716  0.1979950875708835
  0.3344783242960952  0.1076557604241646  0.1221498763152703
  0.2637636609899791  0.1075773650649771  0.2776867405292517
  0.3349688105229589  0.0135783992146871  0.1219679706153424
  0.2634781086747704  0.0135026902200480  0.2778374285693646
  0.2641056805233416  0.4999065516807252  0.1221983987014205
  0.4953160082710841  0.2685541191388300  0.1221652234056977
  0.1034104492890812  0.3388271938711701  0.1221599930766272
  0.3347912191685256  0.4999385567626904  0.2777618189516086
  0.4953311125312428  0.3391321084591538  0.2777634924073232
  0.1032544317232138  0.2681763303374165  0.2777106635540665
  0.2637487734069356  0.5939664541568261  0.1220080349216704
  0.5894942517397406  0.2681848948531936  0.1220082670367729
  0.0092340423945870  0.3393738842569198  0.1219847102771955
  0.3351543093992874  0.5939985827222406  0.2779009305808069
  0.5895142871285693  0.3394537655375025  0.2779193153603245
  0.0090898868723590  0.2679876476261651  0.2778530444797340
  0.7531346904755023  0.2206520402780675  0.1997323023607070
  0.7529490966333673  0.3865681898056777  0.2001715591160723
  0.8456296265063875  0.2207718130831023  0.2003505756616429
  0.8454507002216765  0.3866479382596693  0.1995417498150971
  0.3823171729398947  0.7574910960900926  0.2002155395903143
  0.2163110613598296  0.7576772006618271  0.1996578738689935
  0.3824275667258147  0.8498621173781116  0.1995810915647787
  0.2164129317412438  0.8500780454881915  0.2002820155493338
  0.2993142485747116  0.3036867824665295  0.2000309590995827
 
  0.00000000E+00  0.00000000E+00  0.00000000E+00
  0.00000000E+00  0.00000000E+00  0.00000000E+00
  0.00000000E+00  0.00000000E+00  0.00000000E+00
  0.00000000E+00  0.00000000E+00  0.00000000E+00
  0.00000000E+00  0.00000000E+00  0.00000000E+00
  0.00000000E+00  0.00000000E+00  0.00000000E+00
  0.00000000E+00  0.00000000E+00  0.00000000E+00
  0.00000000E+00  0.00000000E+00  0.00000000E+00
  0.00000000E+00  0.00000000E+00  0.00000000E+00
  0.00000000E+00  0.00000000E+00  0.00000000E+00
  0.00000000E+00  0.00000000E+00  0.00000000E+00
  0.00000000E+00  0.00000000E+00  0.00000000E+00
  0.00000000E+00  0.00000000E+00  0.00000000E+00
  0.00000000E+00  0.00000000E+00  0.00000000E+00
  0.00000000E+00  0.00000000E+00  0.00000000E+00
  0.00000000E+00  0.00000000E+00  0.00000000E+00
  0.00000000E+00  0.00000000E+00  0.00000000E+00
  0.00000000E+00  0.00000000E+00  0.00000000E+00
  0.00000000E+00  0.00000000E+00  0.00000000E+00
  0.00000000E+00  0.00000000E+00  0.00000000E+00
  0.00000000E+00  0.00000000E+00  0.00000000E+00
  0.00000000E+00  0.00000000E+00  0.00000000E+00
  0.00000000E+00  0.00000000E+00  0.00000000E+00
  0.00000000E+00  0.00000000E+00  0.00000000E+00
  0.00000000E+00  0.00000000E+00  0.00000000E+00
  0.00000000E+00  0.00000000E+00  0.00000000E+00
  0.00000000E+00  0.00000000E+00  0.00000000E+00
  0.00000000E+00  0.00000000E+00  0.00000000E+00
  0.00000000E+00  0.00000000E+00  0.00000000E+00
  0.00000000E+00  0.00000000E+00  0.00000000E+00
  0.00000000E+00  0.00000000E+00  0.00000000E+00
  0.00000000E+00  0.00000000E+00  0.00000000E+00
  0.00000000E+00  0.00000000E+00  0.00000000E+00
  0.00000000E+00  0.00000000E+00  0.00000000E+00
  0.00000000E+00  0.00000000E+00  0.00000000E+00
  0.00000000E+00  0.00000000E+00  0.00000000E+00
  0.00000000E+00  0.00000000E+00  0.00000000E+00
  0.00000000E+00  0.00000000E+00  0.00000000E+00
  0.00000000E+00  0.00000000E+00  0.00000000E+00
  0.00000000E+00  0.00000000E+00  0.00000000E+00
  0.00000000E+00  0.00000000E+00  0.00000000E+00
  0.00000000E+00  0.00000000E+00  0.00000000E+00
  0.00000000E+00  0.00000000E+00  0.00000000E+00
  0.00000000E+00  0.00000000E+00  0.00000000E+00
  0.00000000E+00  0.00000000E+00  0.00000000E+00
  0.00000000E+00  0.00000000E+00  0.00000000E+00
  0.00000000E+00  0.00000000E+00  0.00000000E+00
  0.00000000E+00  0.00000000E+00  0.00000000E+00
  0.00000000E+00  0.00000000E+00  0.00000000E+00
  0.00000000E+00  0.00000000E+00  0.00000000E+00
  0.00000000E+00  0.00000000E+00  0.00000000E+00
  0.00000000E+00  0.00000000E+00  0.00000000E+00
  0.00000000E+00  0.00000000E+00  0.00000000E+00
  0.00000000E+00  0.00000000E+00  0.00000000E+00
  0.00000000E+00  0.00000000E+00  0.00000000E+00
  0.00000000E+00  0.00000000E+00  0.00000000E+00
  0.00000000E+00  0.00000000E+00  0.00000000E+00
  0.00000000E+00  0.00000000E+00  0.00000000E+00
  0.00000000E+00  0.00000000E+00  0.00000000E+00
  0.00000000E+00  0.00000000E+00  0.00000000E+00
  0.00000000E+00  0.00000000E+00  0.00000000E+00
  0.00000000E+00  0.00000000E+00  0.00000000E+00
  0.00000000E+00  0.00000000E+00  0.00000000E+00
  0.00000000E+00  0.00000000E+00  0.00000000E+00
  0.00000000E+00  0.00000000E+00  0.00000000E+00
  0.00000000E+00  0.00000000E+00  0.00000000E+00
  0.00000000E+00  0.00000000E+00  0.00000000E+00
  0.00000000E+00  0.00000000E+00  0.00000000E+00
  0.00000000E+00  0.00000000E+00  0.00000000E+00
  0.00000000E+00  0.00000000E+00  0.00000000E+00
  0.00000000E+00  0.00000000E+00  0.00000000E+00
  0.00000000E+00  0.00000000E+00  0.00000000E+00
  0.00000000E+00  0.00000000E+00  0.00000000E+00
  0.00000000E+00  0.00000000E+00  0.00000000E+00
  0.00000000E+00  0.00000000E+00  0.00000000E+00
  0.00000000E+00  0.00000000E+00  0.00000000E+00
  0.00000000E+00  0.00000000E+00  0.00000000E+00
  0.00000000E+00  0.00000000E+00  0.00000000E+00
  0.00000000E+00  0.00000000E+00  0.00000000E+00
  0.00000000E+00  0.00000000E+00  0.00000000E+00
  0.00000000E+00  0.00000000E+00  0.00000000E+00
  0.00000000E+00  0.00000000E+00  0.00000000E+00
  0.00000000E+00  0.00000000E+00  0.00000000E+00
  0.00000000E+00  0.00000000E+00  0.00000000E+00
  0.00000000E+00  0.00000000E+00  0.00000000E+00
  0.00000000E+00  0.00000000E+00  0.00000000E+00
  0.00000000E+00  0.00000000E+00  0.00000000E+00
  0.00000000E+00  0.00000000E+00  0.00000000E+00
  0.00000000E+00  0.00000000E+00  0.00000000E+00
  0.00000000E+00  0.00000000E+00  0.00000000E+00
  0.00000000E+00  0.00000000E+00  0.00000000E+00
  0.00000000E+00  0.00000000E+00  0.00000000E+00
  0.00000000E+00  0.00000000E+00  0.00000000E+00
  0.00000000E+00  0.00000000E+00  0.00000000E+00
  0.00000000E+00  0.00000000E+00  0.00000000E+00
  0.00000000E+00  0.00000000E+00  0.00000000E+00
  0.00000000E+00  0.00000000E+00  0.00000000E+00
  0.00000000E+00  0.00000000E+00  0.00000000E+00
  0.00000000E+00  0.00000000E+00  0.00000000E+00
  0.00000000E+00  0.00000000E+00  0.00000000E+00
  0.00000000E+00  0.00000000E+00  0.00000000E+00
