 C  N Mn                                
   1.00000000000000     
    12.4968983727282659    0.0000000000000000    0.0000000000000000
    -0.0000000000000004   12.7922896309388072    0.0000000000000000
     0.0000000000000003    0.0000000000000000   19.8713392819153718
   C    N    Mn
    55     3     1
Direct
  0.0520987524001889  0.0476521552751352  0.1593986709712502
  0.1525243739205252  0.1024521718804313  0.1593645962378419
  0.1519840802007694  0.2137406648081722  0.1592892242759145
  0.0522981334384951  0.2688202960841259  0.1592429146095148
  0.2528770333784489  0.0477004721890497  0.1593931240865958
  0.3530454246704615  0.1031870674133076  0.1594130822987125
  0.3522660964563641  0.2152618470014503  0.1593836474748276
  0.2513985938091729  0.2694646666953791  0.1593155495615936
  0.4534614473890708  0.0480183337681291  0.1594601309383503
  0.5530197018923118  0.1059126584698971  0.1594438210875620
  0.5532687319226710  0.2189650582494355  0.1593922531198204
  0.4511691406537043  0.2737783068392626  0.1594270672640094
  0.6515510644664527  0.0476416384878492  0.1594525811509193
  0.7514049647439327  0.1032702732538520  0.1594112970828684
  0.7524355335888708  0.2155892712384307  0.1593529202881855
  0.6544691857261127  0.2744766754143793  0.1593344896307587
  0.8515490287550300  0.0477472911309135  0.1594012613221293
  0.9519540459387449  0.1023572984740305  0.1593703941610304
  0.9523802695213351  0.2137251567698057  0.1593019847485912
  0.8535309046770899  0.2691286865722758  0.1593130295589474
  0.0518165487807493  0.3801862309192703  0.1591944500656622
  0.1498134021716610  0.4363031570478476  0.1591736855161910
  0.1497584373714304  0.5475988102956585  0.1591555671536016
  0.0520954191016334  0.6036533074430070  0.1592138154647904
  0.2483978809976583  0.3809021173587458  0.1592943187839657
  0.3459419368219201  0.4370679125934734  0.1594116021279467
  0.3449532781096900  0.5495944742635548  0.1593747951683300
  0.2480276858964141  0.6042382497269639  0.1592314391476445
  0.7576591776530465  0.4357745403686518  0.1592558819001787
  0.7582435731772094  0.5482026878768065  0.1592210016170543
  0.8551114015811835  0.3806634425315276  0.1592750638443941
  0.9538283915312499  0.4363560455543129  0.1592136020428628
  0.9540840562240406  0.5474020766308265  0.1592141941565846
  0.8558311969007886  0.6031102079790596  0.1592540771964996
  0.0520999095669595  0.7150571365841437  0.1592629748900374
  0.1516334793472109  0.7706445110871065  0.1592959358661030
  0.0521074258539635  0.9366089215125949  0.1594087098476038
  0.2504821662804348  0.7153484578568997  0.1592820273440692
  0.3517498771956295  0.7683158485449755  0.1593938795179901
  0.3530268470226344  0.8803310647891937  0.1594266459532783
  0.2529203887966651  0.9360116579312190  0.1594045975453977
  0.4495497225841639  0.7084465820754990  0.1594218928558032
  0.5523916489822162  0.7625625110412889  0.1594292666261838
  0.5522897747963166  0.8764216663648445  0.1594896218996305
  0.4534912416387087  0.9351003990438133  0.1594782312891280
  0.6551285730800945  0.7086040225311796  0.1593226190367651
  0.7528457861380944  0.7681120633370211  0.1593660999595748
  0.7515529716912146  0.8800947524150573  0.1594440375539819
  0.6513667631131922  0.9347374903302635  0.1594834077812409
  0.8536952194946016  0.7145158766653789  0.1593139807091651
  0.9525874456466173  0.7701738663516383  0.1593144837558971
  0.8516083387815870  0.9360375516672127  0.1594173808176214
  0.1523151615118089  0.8817529664138000  0.1593716093822588
  0.9519938013654143  0.8815748460892323  0.1593769301672691
  0.4451219261959482  0.3840692145844093  0.1594854496187995
  0.4422673482532093  0.6006860673286368  0.1594664683682412
  0.6599082013129471  0.3834884549450342  0.1592662972361272
  0.6615667865181104  0.6008998537295401  0.1592020790077517
  0.5522303909533042  0.4910409622919135  0.1593098983868702
 
  0.00000000E+00  0.00000000E+00  0.00000000E+00
  0.00000000E+00  0.00000000E+00  0.00000000E+00
  0.00000000E+00  0.00000000E+00  0.00000000E+00
  0.00000000E+00  0.00000000E+00  0.00000000E+00
  0.00000000E+00  0.00000000E+00  0.00000000E+00
  0.00000000E+00  0.00000000E+00  0.00000000E+00
  0.00000000E+00  0.00000000E+00  0.00000000E+00
  0.00000000E+00  0.00000000E+00  0.00000000E+00
  0.00000000E+00  0.00000000E+00  0.00000000E+00
  0.00000000E+00  0.00000000E+00  0.00000000E+00
  0.00000000E+00  0.00000000E+00  0.00000000E+00
  0.00000000E+00  0.00000000E+00  0.00000000E+00
  0.00000000E+00  0.00000000E+00  0.00000000E+00
  0.00000000E+00  0.00000000E+00  0.00000000E+00
  0.00000000E+00  0.00000000E+00  0.00000000E+00
  0.00000000E+00  0.00000000E+00  0.00000000E+00
  0.00000000E+00  0.00000000E+00  0.00000000E+00
  0.00000000E+00  0.00000000E+00  0.00000000E+00
  0.00000000E+00  0.00000000E+00  0.00000000E+00
  0.00000000E+00  0.00000000E+00  0.00000000E+00
  0.00000000E+00  0.00000000E+00  0.00000000E+00
  0.00000000E+00  0.00000000E+00  0.00000000E+00
  0.00000000E+00  0.00000000E+00  0.00000000E+00
  0.00000000E+00  0.00000000E+00  0.00000000E+00
  0.00000000E+00  0.00000000E+00  0.00000000E+00
  0.00000000E+00  0.00000000E+00  0.00000000E+00
  0.00000000E+00  0.00000000E+00  0.00000000E+00
  0.00000000E+00  0.00000000E+00  0.00000000E+00
  0.00000000E+00  0.00000000E+00  0.00000000E+00
  0.00000000E+00  0.00000000E+00  0.00000000E+00
  0.00000000E+00  0.00000000E+00  0.00000000E+00
  0.00000000E+00  0.00000000E+00  0.00000000E+00
  0.00000000E+00  0.00000000E+00  0.00000000E+00
  0.00000000E+00  0.00000000E+00  0.00000000E+00
  0.00000000E+00  0.00000000E+00  0.00000000E+00
  0.00000000E+00  0.00000000E+00  0.00000000E+00
  0.00000000E+00  0.00000000E+00  0.00000000E+00
  0.00000000E+00  0.00000000E+00  0.00000000E+00
  0.00000000E+00  0.00000000E+00  0.00000000E+00
  0.00000000E+00  0.00000000E+00  0.00000000E+00
  0.00000000E+00  0.00000000E+00  0.00000000E+00
  0.00000000E+00  0.00000000E+00  0.00000000E+00
  0.00000000E+00  0.00000000E+00  0.00000000E+00
  0.00000000E+00  0.00000000E+00  0.00000000E+00
  0.00000000E+00  0.00000000E+00  0.00000000E+00
  0.00000000E+00  0.00000000E+00  0.00000000E+00
  0.00000000E+00  0.00000000E+00  0.00000000E+00
  0.00000000E+00  0.00000000E+00  0.00000000E+00
  0.00000000E+00  0.00000000E+00  0.00000000E+00
  0.00000000E+00  0.00000000E+00  0.00000000E+00
  0.00000000E+00  0.00000000E+00  0.00000000E+00
  0.00000000E+00  0.00000000E+00  0.00000000E+00
  0.00000000E+00  0.00000000E+00  0.00000000E+00
  0.00000000E+00  0.00000000E+00  0.00000000E+00
  0.00000000E+00  0.00000000E+00  0.00000000E+00
  0.00000000E+00  0.00000000E+00  0.00000000E+00
  0.00000000E+00  0.00000000E+00  0.00000000E+00
  0.00000000E+00  0.00000000E+00  0.00000000E+00
  0.00000000E+00  0.00000000E+00  0.00000000E+00
