 C  N Co                                
   1.00000000000000     
    12.4979911511841077    0.0000000000000000    0.0000000000000000
    -0.0000000000000004   12.7726042798212234    0.0000000000000000
     0.0000000000000003    0.0000000000000000   19.8713392819153718
   C    N    Co
    56     2     1
Direct
  0.0521056896900388  0.0474505030984077  0.1593986663728816
  0.1522328802937334  0.1020784304277906  0.1593751345088538
  0.1518044076136490  0.2132459435247684  0.1592970387551115
  0.0521348120324059  0.2684892658235666  0.1592437267337799
  0.2530715804009915  0.0476620052258812  0.1594092612780106
  0.3531245988446425  0.1037260449452699  0.1594256686788280
  0.3525923422049207  0.2162038585260869  0.1593688912792785
  0.2510992351035266  0.2688151171661225  0.1592893338896559
  0.4532473242795407  0.0483902840318265  0.1594614812606526
  0.5528680899507201  0.1070807832452568  0.1594574568182931
  0.5528129190108212  0.2200829669724619  0.1594332158264076
  0.4513204731055586  0.2759310729224391  0.1593912929213550
  0.6518091077183513  0.0482887698822390  0.1594627414611844
  0.7515960604797449  0.1035685363124189  0.1594152075661530
  0.7527116718100938  0.2160831327704367  0.1593754303492835
  0.6549870543561013  0.2759959221192818  0.1593978621917997
  0.8514382179967138  0.0477179009186688  0.1594029751147682
  0.9520039604766189  0.1021956900167217  0.1593728651150456
  0.9526657539679901  0.2133816999348917  0.1593041017725926
  0.8534330276131933  0.2691224984087169  0.1593011553714292
  0.0515003983028051  0.3803024310361748  0.1591933772803167
  0.1493779144184962  0.4360633523990790  0.1591850465312310
  0.1493883770476917  0.5476951705242566  0.1591932750705827
  0.0515040307533353  0.6034513084599715  0.1592104348427435
  0.2477455884082101  0.3798252344363765  0.1592283369134446
  0.3444208229413616  0.4357835825282864  0.1592757456664881
  0.3444157573011565  0.5479874144094692  0.1592828326603107
  0.2477506601063586  0.6039495702856014  0.1592408952378431
  0.7568697101440230  0.4349618370829851  0.1592973187831832
  0.7568624644138739  0.5487594480685176  0.1592980642375156
  0.8550042153913060  0.3805010843805340  0.1592513160197224
  0.9535166530862743  0.4363138903329700  0.1591802817987969
  0.9535148215816228  0.5474472796561148  0.1591823619144800
  0.8549974084548468  0.6032334675085576  0.1592598704028413
  0.0521336532715529  0.7152560787424777  0.1592551433166997
  0.1518070465540970  0.7705111863529900  0.1593021988410557
  0.0521053713689409  0.9363087121355866  0.1594028637554426
  0.2510948633455152  0.7149454121931370  0.1593109567045258
  0.3525913512767391  0.7675444668765103  0.1593842032851643
  0.3531056791670396  0.8800216717796141  0.1594228961134665
  0.2530604634493113  0.9360852263749889  0.1594081854778732
  0.4513280720717370  0.7078318185158630  0.1593925267671090
  0.5528290698686833  0.7636801925925513  0.1594303891232118
  0.5528822445298284  0.8766708623606307  0.1594601006025720
  0.4532468253377812  0.9353361078483046  0.1594507065811119
  0.6550058560466727  0.7077530977912869  0.1593993788723755
  0.7527257509404021  0.7676441651220429  0.1593792474288102
  0.7516231528057085  0.8801568387196501  0.1594298359938458
  0.6518449273821445  0.9354413243611256  0.1594646081496286
  0.8534409873006368  0.7146135643674302  0.1593159272012171
  0.9526577172470234  0.7703589202761139  0.1593080306952550
  0.8514567766575208  0.9360137196215579  0.1594109680326188
  0.1522168074196149  0.8816747286376606  0.1593722152670619
  0.9520231792239947  0.8815404768708884  0.1593699650736372
  0.4460580097808973  0.3877487180338511  0.1593452141214318
  0.4460551777002054  0.5960257358408527  0.1593474563177704
  0.6601922517980158  0.3844437811322231  0.1593712915673313
  0.6601949044903205  0.5993014481533970  0.1593709486041364
  0.5525719216543731  0.4918862440340319  0.1594121369537018
 
  0.00000000E+00  0.00000000E+00  0.00000000E+00
  0.00000000E+00  0.00000000E+00  0.00000000E+00
  0.00000000E+00  0.00000000E+00  0.00000000E+00
  0.00000000E+00  0.00000000E+00  0.00000000E+00
  0.00000000E+00  0.00000000E+00  0.00000000E+00
  0.00000000E+00  0.00000000E+00  0.00000000E+00
  0.00000000E+00  0.00000000E+00  0.00000000E+00
  0.00000000E+00  0.00000000E+00  0.00000000E+00
  0.00000000E+00  0.00000000E+00  0.00000000E+00
  0.00000000E+00  0.00000000E+00  0.00000000E+00
  0.00000000E+00  0.00000000E+00  0.00000000E+00
  0.00000000E+00  0.00000000E+00  0.00000000E+00
  0.00000000E+00  0.00000000E+00  0.00000000E+00
  0.00000000E+00  0.00000000E+00  0.00000000E+00
  0.00000000E+00  0.00000000E+00  0.00000000E+00
  0.00000000E+00  0.00000000E+00  0.00000000E+00
  0.00000000E+00  0.00000000E+00  0.00000000E+00
  0.00000000E+00  0.00000000E+00  0.00000000E+00
  0.00000000E+00  0.00000000E+00  0.00000000E+00
  0.00000000E+00  0.00000000E+00  0.00000000E+00
  0.00000000E+00  0.00000000E+00  0.00000000E+00
  0.00000000E+00  0.00000000E+00  0.00000000E+00
  0.00000000E+00  0.00000000E+00  0.00000000E+00
  0.00000000E+00  0.00000000E+00  0.00000000E+00
  0.00000000E+00  0.00000000E+00  0.00000000E+00
  0.00000000E+00  0.00000000E+00  0.00000000E+00
  0.00000000E+00  0.00000000E+00  0.00000000E+00
  0.00000000E+00  0.00000000E+00  0.00000000E+00
  0.00000000E+00  0.00000000E+00  0.00000000E+00
  0.00000000E+00  0.00000000E+00  0.00000000E+00
  0.00000000E+00  0.00000000E+00  0.00000000E+00
  0.00000000E+00  0.00000000E+00  0.00000000E+00
  0.00000000E+00  0.00000000E+00  0.00000000E+00
  0.00000000E+00  0.00000000E+00  0.00000000E+00
  0.00000000E+00  0.00000000E+00  0.00000000E+00
  0.00000000E+00  0.00000000E+00  0.00000000E+00
  0.00000000E+00  0.00000000E+00  0.00000000E+00
  0.00000000E+00  0.00000000E+00  0.00000000E+00
  0.00000000E+00  0.00000000E+00  0.00000000E+00
  0.00000000E+00  0.00000000E+00  0.00000000E+00
  0.00000000E+00  0.00000000E+00  0.00000000E+00
  0.00000000E+00  0.00000000E+00  0.00000000E+00
  0.00000000E+00  0.00000000E+00  0.00000000E+00
  0.00000000E+00  0.00000000E+00  0.00000000E+00
  0.00000000E+00  0.00000000E+00  0.00000000E+00
  0.00000000E+00  0.00000000E+00  0.00000000E+00
  0.00000000E+00  0.00000000E+00  0.00000000E+00
  0.00000000E+00  0.00000000E+00  0.00000000E+00
  0.00000000E+00  0.00000000E+00  0.00000000E+00
  0.00000000E+00  0.00000000E+00  0.00000000E+00
  0.00000000E+00  0.00000000E+00  0.00000000E+00
  0.00000000E+00  0.00000000E+00  0.00000000E+00
  0.00000000E+00  0.00000000E+00  0.00000000E+00
  0.00000000E+00  0.00000000E+00  0.00000000E+00
  0.00000000E+00  0.00000000E+00  0.00000000E+00
  0.00000000E+00  0.00000000E+00  0.00000000E+00
  0.00000000E+00  0.00000000E+00  0.00000000E+00
  0.00000000E+00  0.00000000E+00  0.00000000E+00
  0.00000000E+00  0.00000000E+00  0.00000000E+00
