 C  N  H Ni                             
   1.00000000000000     
    26.3054835246957985    0.0000000000000000    0.0000000000000000
     0.0000000000000000   26.3156247372171848    0.0000000000000000
     0.0000000000000000    0.0000000000000000   25.0000000000000000
   C    N    H    Ni
    60     8    32     1
Direct
  0.2524847875696680  0.1975712733997101  0.2004924673042230
  0.2039473843495706  0.1716871346624470  0.1993733426437257
  0.1672983762487984  0.2083248212497500  0.1993834149105494
  0.1932057765237216  0.2568374152961695  0.2005083570508086
  0.3461397099793445  0.1975826427209476  0.1995161847599123
  0.3946887216853697  0.1717230868342320  0.2005957475885820
  0.4054182143692096  0.2568843054325981  0.1995213329135929
  0.4313276792904743  0.2083763846700982  0.2005986409147853
  0.2524784126038283  0.4098277801370969  0.1995117314178959
  0.1932233831330114  0.3504797670974323  0.1995208857121475
  0.2039083261212073  0.4356463391038929  0.2005806709787863
  0.1672897765637514  0.3989696508904880  0.2005924100496498
  0.4053888453152645  0.3505269990125655  0.2005044440130609
  0.4313118178880243  0.3990218802042834  0.1994020154473718
  0.3461259792802474  0.4098482336101795  0.2005102161691900
  0.3946886963686392  0.4356876177446221  0.1994079060236299
  0.2993008961694282  0.4353838364748099  0.2000260644240567
  0.1677187126857977  0.3036536445286511  0.2000307841325017
  0.2993092359611886  0.1720687619320913  0.2000065395009800
  0.2992622157586168  0.1152183008448796  0.1999838069068436
  0.3194786598521511  0.0876407731136855  0.1563841871957641
  0.2789322184052709  0.0876047506243189  0.2435066742252536
  0.3198327393168939  0.0346371085069266  0.1560420680457758
  0.2786742605937753  0.0345996302475951  0.2438400504408340
  0.2993408779084769  0.0074890527614712  0.1999729396860740
  0.4309029337011219  0.3037145343091143  0.2000184021669306
  0.2993372812409521  0.4922692959404303  0.2000206393428175
  0.4877814258441218  0.3037545384946356  0.2000078560673979
  0.1108485570915062  0.3036192754083292  0.2000103846784327
  0.2791198056166642  0.5198883304596041  0.1564343680777950
  0.5153774222912754  0.2835620476967504  0.1564013527404408
  0.0832878253403276  0.3238490749598014  0.1564020615015008
  0.3196563301695066  0.5199026654009500  0.2435488821513819
  0.5153925762742398  0.3240229536574136  0.2435692290337417
  0.0832099290150062  0.2833372485352470  0.2435414930614822
  0.2788372116699311  0.5728980720222226  0.1560728263017313
  0.5684001848284987  0.2832630794822530  0.1560588480451607
  0.0302656305265215  0.3242351792635298  0.1560491477444348
  0.3199612132486553  0.5729147189673660  0.2438739794502583
  0.5684169822282135  0.3242957478889896  0.2439105277815958
  0.0301837372482057  0.2831440208289898  0.2438693289397270
  0.2993711126654131  0.6000380336077752  0.1999825560592260
  0.5955331158775274  0.3037333665388470  0.2000022257446712
  0.0030873728853018  0.3037767871614575  0.1999761773721191
  0.6930570075406360  0.3035944915070196  0.2000156104954536
  0.9055530034506787  0.3037871302545384  0.2000173298000312
  0.2993042383117620  0.6975576293936070  0.2000139457720370
  0.2994686271799367  0.9099718148060493  0.2000287520765671
  0.7446070587027115  0.3035992299514422  0.1999899958513902
  0.7734288339416273  0.2561413445776259  0.1997502254063368
  0.7733297016786748  0.3511177960006359  0.2002009225962399
  0.8252677972284100  0.2561980377930645  0.2002927221401343
  0.8251652016237786  0.3511698987843179  0.1996665734661534
  0.8539971671876598  0.3037169637908128  0.2000022655671824
  0.2993342989335226  0.7490955688485502  0.1999982332117984
  0.3468974712926768  0.7778112914966974  0.2002260017841284
  0.2518299257955764  0.7779034525585130  0.1997260418967219
  0.3469495225111729  0.8296251913841872  0.1996744603019028
  0.2518830308052609  0.8297175404824285  0.2002789273259402
  0.2994454469859502  0.8584337019720528  0.2000015011077993
  0.2456811797660660  0.2500299409033134  0.2008181661617318
  0.2457009575030466  0.3573438388056556  0.1992082603865621
  0.3529388356905733  0.2500519131547329  0.1992116835154473
  0.3529135402967652  0.3573707576036696  0.2008136598387008
  0.6474394967840309  0.3036794125828164  0.2000037957172837
  0.9511756480145322  0.3038495438940830  0.1999633863718544
  0.2993464559538107  0.6519406173897434  0.1999638761716712
  0.2994416350505179  0.9555885579979509  0.2000025163697630
  0.1985879882530362  0.1307937282223176  0.1982885569915638
  0.1263899088690877  0.2029641039602743  0.1983010778169188
  0.4000642139122030  0.1308300973148603  0.2016320913665412
  0.4722404391149974  0.2030442437478623  0.2016410673826799
  0.1985291918234026  0.4765374505730590  0.2016210795036571
  0.1263694682260193  0.4042372240363197  0.2016433776241850
  0.4722261767458272  0.4043229947096740  0.1983213819628655
  0.4000938959935574  0.4765746642287376  0.1983257012541899
  0.3343640649625613  0.1083650141999600  0.1219246514492154
  0.2638045368087596  0.1082877167258748  0.2778781785594213
  0.3350144960164391  0.0135914966052606  0.1219699470192396
  0.2634018461726803  0.0135166429532209  0.2778422585106642
  0.2641889607389520  0.4992026946025521  0.1219718493166433
  0.4946553933613396  0.2686351609378738  0.1219558686387569
  0.1040617094385398  0.3387225358677816  0.1219640655467742
  0.3347396763307284  0.4992422365551008  0.2779563246929291
  0.4946855774074870  0.3390970865130920  0.2779547371940387
  0.1038957861053821  0.2681946210731789  0.2779096297075132
  0.2636938125921852  0.5939817544396926  0.1220044995708014
  0.5895137741927676  0.2681391426233948  0.1220051946489408
  0.0092060154990961  0.3394326913528737  0.1219955689736455
  0.3351962299657298  0.5940112028446205  0.2778891444267503
  0.5895401320819319  0.3395151955506571  0.2779126411331109
  0.0090488436825927  0.2679390891656758  0.2778679287048101
  0.7527588756535813  0.2201497204010940  0.1997379628743459
  0.7525818587947170  0.3870640484200370  0.2001478693696674
  0.8460147879728853  0.2202518328806129  0.2003342337100522
  0.8458363255324088  0.3871572703114418  0.1995581705957660
  0.3828687502238032  0.7570767354524069  0.2002124172631306
  0.2158181035474465  0.7572408079120848  0.1996536350906765
  0.3829628911524396  0.8502850770951175  0.1995811400934387
  0.2159135962387047  0.8504541156486956  0.2002836873080943
  0.2993112519342324  0.3037007767530889  0.2000166148494658
 
  0.00000000E+00  0.00000000E+00  0.00000000E+00
  0.00000000E+00  0.00000000E+00  0.00000000E+00
  0.00000000E+00  0.00000000E+00  0.00000000E+00
  0.00000000E+00  0.00000000E+00  0.00000000E+00
  0.00000000E+00  0.00000000E+00  0.00000000E+00
  0.00000000E+00  0.00000000E+00  0.00000000E+00
  0.00000000E+00  0.00000000E+00  0.00000000E+00
  0.00000000E+00  0.00000000E+00  0.00000000E+00
  0.00000000E+00  0.00000000E+00  0.00000000E+00
  0.00000000E+00  0.00000000E+00  0.00000000E+00
  0.00000000E+00  0.00000000E+00  0.00000000E+00
  0.00000000E+00  0.00000000E+00  0.00000000E+00
  0.00000000E+00  0.00000000E+00  0.00000000E+00
  0.00000000E+00  0.00000000E+00  0.00000000E+00
  0.00000000E+00  0.00000000E+00  0.00000000E+00
  0.00000000E+00  0.00000000E+00  0.00000000E+00
  0.00000000E+00  0.00000000E+00  0.00000000E+00
  0.00000000E+00  0.00000000E+00  0.00000000E+00
  0.00000000E+00  0.00000000E+00  0.00000000E+00
  0.00000000E+00  0.00000000E+00  0.00000000E+00
  0.00000000E+00  0.00000000E+00  0.00000000E+00
  0.00000000E+00  0.00000000E+00  0.00000000E+00
  0.00000000E+00  0.00000000E+00  0.00000000E+00
  0.00000000E+00  0.00000000E+00  0.00000000E+00
  0.00000000E+00  0.00000000E+00  0.00000000E+00
  0.00000000E+00  0.00000000E+00  0.00000000E+00
  0.00000000E+00  0.00000000E+00  0.00000000E+00
  0.00000000E+00  0.00000000E+00  0.00000000E+00
  0.00000000E+00  0.00000000E+00  0.00000000E+00
  0.00000000E+00  0.00000000E+00  0.00000000E+00
  0.00000000E+00  0.00000000E+00  0.00000000E+00
  0.00000000E+00  0.00000000E+00  0.00000000E+00
  0.00000000E+00  0.00000000E+00  0.00000000E+00
  0.00000000E+00  0.00000000E+00  0.00000000E+00
  0.00000000E+00  0.00000000E+00  0.00000000E+00
  0.00000000E+00  0.00000000E+00  0.00000000E+00
  0.00000000E+00  0.00000000E+00  0.00000000E+00
  0.00000000E+00  0.00000000E+00  0.00000000E+00
  0.00000000E+00  0.00000000E+00  0.00000000E+00
  0.00000000E+00  0.00000000E+00  0.00000000E+00
  0.00000000E+00  0.00000000E+00  0.00000000E+00
  0.00000000E+00  0.00000000E+00  0.00000000E+00
  0.00000000E+00  0.00000000E+00  0.00000000E+00
  0.00000000E+00  0.00000000E+00  0.00000000E+00
  0.00000000E+00  0.00000000E+00  0.00000000E+00
  0.00000000E+00  0.00000000E+00  0.00000000E+00
  0.00000000E+00  0.00000000E+00  0.00000000E+00
  0.00000000E+00  0.00000000E+00  0.00000000E+00
  0.00000000E+00  0.00000000E+00  0.00000000E+00
  0.00000000E+00  0.00000000E+00  0.00000000E+00
  0.00000000E+00  0.00000000E+00  0.00000000E+00
  0.00000000E+00  0.00000000E+00  0.00000000E+00
  0.00000000E+00  0.00000000E+00  0.00000000E+00
  0.00000000E+00  0.00000000E+00  0.00000000E+00
  0.00000000E+00  0.00000000E+00  0.00000000E+00
  0.00000000E+00  0.00000000E+00  0.00000000E+00
  0.00000000E+00  0.00000000E+00  0.00000000E+00
  0.00000000E+00  0.00000000E+00  0.00000000E+00
  0.00000000E+00  0.00000000E+00  0.00000000E+00
  0.00000000E+00  0.00000000E+00  0.00000000E+00
  0.00000000E+00  0.00000000E+00  0.00000000E+00
  0.00000000E+00  0.00000000E+00  0.00000000E+00
  0.00000000E+00  0.00000000E+00  0.00000000E+00
  0.00000000E+00  0.00000000E+00  0.00000000E+00
  0.00000000E+00  0.00000000E+00  0.00000000E+00
  0.00000000E+00  0.00000000E+00  0.00000000E+00
  0.00000000E+00  0.00000000E+00  0.00000000E+00
  0.00000000E+00  0.00000000E+00  0.00000000E+00
  0.00000000E+00  0.00000000E+00  0.00000000E+00
  0.00000000E+00  0.00000000E+00  0.00000000E+00
  0.00000000E+00  0.00000000E+00  0.00000000E+00
  0.00000000E+00  0.00000000E+00  0.00000000E+00
  0.00000000E+00  0.00000000E+00  0.00000000E+00
  0.00000000E+00  0.00000000E+00  0.00000000E+00
  0.00000000E+00  0.00000000E+00  0.00000000E+00
  0.00000000E+00  0.00000000E+00  0.00000000E+00
  0.00000000E+00  0.00000000E+00  0.00000000E+00
  0.00000000E+00  0.00000000E+00  0.00000000E+00
  0.00000000E+00  0.00000000E+00  0.00000000E+00
  0.00000000E+00  0.00000000E+00  0.00000000E+00
  0.00000000E+00  0.00000000E+00  0.00000000E+00
  0.00000000E+00  0.00000000E+00  0.00000000E+00
  0.00000000E+00  0.00000000E+00  0.00000000E+00
  0.00000000E+00  0.00000000E+00  0.00000000E+00
  0.00000000E+00  0.00000000E+00  0.00000000E+00
  0.00000000E+00  0.00000000E+00  0.00000000E+00
  0.00000000E+00  0.00000000E+00  0.00000000E+00
  0.00000000E+00  0.00000000E+00  0.00000000E+00
  0.00000000E+00  0.00000000E+00  0.00000000E+00
  0.00000000E+00  0.00000000E+00  0.00000000E+00
  0.00000000E+00  0.00000000E+00  0.00000000E+00
  0.00000000E+00  0.00000000E+00  0.00000000E+00
  0.00000000E+00  0.00000000E+00  0.00000000E+00
  0.00000000E+00  0.00000000E+00  0.00000000E+00
  0.00000000E+00  0.00000000E+00  0.00000000E+00
  0.00000000E+00  0.00000000E+00  0.00000000E+00
  0.00000000E+00  0.00000000E+00  0.00000000E+00
  0.00000000E+00  0.00000000E+00  0.00000000E+00
  0.00000000E+00  0.00000000E+00  0.00000000E+00
  0.00000000E+00  0.00000000E+00  0.00000000E+00
  0.00000000E+00  0.00000000E+00  0.00000000E+00
