 C  N Ti                                
   1.00000000000000     
     8.4522143793698881   -0.0000149526132524   -0.0000000749745491
    -0.0000148634800356    8.4528876041597947   -0.0000010781021687
    -0.0000149626589660   -0.0000074641276324   17.3852863340899582
   C    N    Ti
    20     4     1
Direct
  0.5000172466178688  0.0858351517822759  0.1542293488240132
  0.3520152552586215  0.1649885393353818  0.1542273470023795
  0.6480086553285970  0.1649874689250096  0.1542175156135027
  0.7958192901923484  0.9162593372894366  0.1541771179311268
  0.7958207505556317  0.0836846681248637  0.1541760627588153
  0.9164380934706071  0.2041466530990977  0.1541733682904571
  0.8349712154926260  0.3519439226539700  0.1542096939892591
  0.2042086738509437  0.0836856758289106  0.1541854007805858
  0.0835909855998376  0.2041482113022302  0.1541790633653627
  0.1650579286419790  0.3519391674400125  0.1542187143382889
  0.0857457007478939  0.4999762260520614  0.1542173434628720
  0.1650567477543780  0.6480011181513318  0.1542158994079470
  0.3520193012676766  0.8349575307672323  0.1542272467617827
  0.2042072101901094  0.9162603614784496  0.1541840693185653
  0.0835898704362484  0.7957983881765580  0.1541756051983086
  0.6480127088550098  0.8349564908398015  0.1542210345591676
  0.8349700509167300  0.6480058642770721  0.1542105308210193
  0.9164369974863126  0.7957968425927481  0.1541722922561266
  0.5000107106160865  0.9141098264243840  0.1542308187815470
  0.9142822814510355  0.4999688251648299  0.1542132623103602
  0.6705047072541613  0.3294351542363039  0.1542465145203909
  0.3295238715250439  0.3294359402995206  0.1542580434544452
  0.3295232277924571  0.6705099168686566  0.1542570816248909
  0.6705040863035813  0.6705091042746942  0.1542504442450525
  0.5000139923253255  0.4999725322033366  0.1543391902045267
 
  0.00000000E+00  0.00000000E+00  0.00000000E+00
  0.00000000E+00  0.00000000E+00  0.00000000E+00
  0.00000000E+00  0.00000000E+00  0.00000000E+00
  0.00000000E+00  0.00000000E+00  0.00000000E+00
  0.00000000E+00  0.00000000E+00  0.00000000E+00
  0.00000000E+00  0.00000000E+00  0.00000000E+00
  0.00000000E+00  0.00000000E+00  0.00000000E+00
  0.00000000E+00  0.00000000E+00  0.00000000E+00
  0.00000000E+00  0.00000000E+00  0.00000000E+00
  0.00000000E+00  0.00000000E+00  0.00000000E+00
  0.00000000E+00  0.00000000E+00  0.00000000E+00
  0.00000000E+00  0.00000000E+00  0.00000000E+00
  0.00000000E+00  0.00000000E+00  0.00000000E+00
  0.00000000E+00  0.00000000E+00  0.00000000E+00
  0.00000000E+00  0.00000000E+00  0.00000000E+00
  0.00000000E+00  0.00000000E+00  0.00000000E+00
  0.00000000E+00  0.00000000E+00  0.00000000E+00
  0.00000000E+00  0.00000000E+00  0.00000000E+00
  0.00000000E+00  0.00000000E+00  0.00000000E+00
  0.00000000E+00  0.00000000E+00  0.00000000E+00
  0.00000000E+00  0.00000000E+00  0.00000000E+00
  0.00000000E+00  0.00000000E+00  0.00000000E+00
  0.00000000E+00  0.00000000E+00  0.00000000E+00
  0.00000000E+00  0.00000000E+00  0.00000000E+00
  0.00000000E+00  0.00000000E+00  0.00000000E+00
