 C  N Fe                                
   1.00000000000000     
    12.5031035145814897    0.0000000000000000    0.0000000000000000
    -0.0000000000000004   12.7949537950974239    0.0000000000000000
     0.0000000000000003    0.0000000000000000   19.8713392819153718
   C    N    Fe
    56     2     1
Direct
  0.0520616849844143  0.0474002423752317  0.1594085617875380
  0.1522224654068285  0.1021023228829050  0.1593756456322907
  0.1517606613513873  0.2132523046786593  0.1592956767733215
  0.0521540512166265  0.2685324578985592  0.1592417075542536
  0.2529199220467366  0.0476253232314880  0.1594092616497738
  0.3529623451693573  0.1033936081296593  0.1594282443519553
  0.3522606485128063  0.2155788567315257  0.1593672978409839
  0.2510420549320183  0.2687377804706803  0.1592880693477094
  0.4533074846078547  0.0483544740690053  0.1594601963189161
  0.5529703612924055  0.1066145732039143  0.1594582732801623
  0.5530410645258598  0.2194892588368876  0.1594344191686971
  0.4511671985791395  0.2746178695972294  0.1593522506459658
  0.6518767137562965  0.0482149936854560  0.1594635259496912
  0.7517641286659114  0.1033588714222121  0.1594207539338007
  0.7529321056068990  0.2156823079549560  0.1593853221369365
  0.6551031632657607  0.2750264491813407  0.1594126900943600
  0.8516728483779392  0.0476565586450571  0.1594005160394328
  0.9520722679745852  0.1022288869911365  0.1593727850990971
  0.9526343978644629  0.2134034692324628  0.1592983261114758
  0.8536030740404248  0.2690434495768246  0.1593106770695540
  0.0515993674564399  0.3802935817859874  0.1592003230232753
  0.1493203011612272  0.4360627894739699  0.1591854499378427
  0.1493171593620294  0.5476789070639795  0.1591935790315043
  0.0516069401466804  0.6034520851156919  0.1592086643997862
  0.2476571137617336  0.3797526758301277  0.1592193230307993
  0.3442722250400266  0.4356900389463016  0.1592577665284672
  0.3442665396251395  0.5480799486459130  0.1593064651846425
  0.2476412417748843  0.6040121425962072  0.1592442957633650
  0.7573046511142724  0.4350846673503394  0.1592983427407732
  0.7572875677583994  0.5486296134981702  0.1592873735239140
  0.8551554977834952  0.3805742308467913  0.1592553197272219
  0.9536597359393546  0.4363340221819978  0.1591839026046854
  0.9536502382278561  0.5474116470773641  0.1591788919499484
  0.8551519689492144  0.6031552342454835  0.1592407515314231
  0.0521615860769752  0.7151991867108688  0.1592540556873666
  0.1517661865609267  0.7704946804934546  0.1593004887565242
  0.0520637719509673  0.9363493948990027  0.1594178186139277
  0.2510334327950136  0.7150145695435214  0.1593060253998662
  0.3522495550258772  0.7681687020188824  0.1593863215689989
  0.3529564636340042  0.8803468783882445  0.1594184208719054
  0.2529051539953374  0.9361159229366250  0.1594073586369323
  0.4511703563501981  0.7091780349009780  0.1594169386351429
  0.5530639115407688  0.7642974266695303  0.1594436517366947
  0.5529973993646925  0.8771550435313539  0.1594568453503513
  0.4533126404705149  0.9353867092408320  0.1594489519772580
  0.6551260777090192  0.7087318370250949  0.1593924251460417
  0.7529467003125027  0.7680488631360310  0.1593685554143821
  0.7517918967702757  0.8803654595290458  0.1594256466491541
  0.6519146145875555  0.9355373113523090  0.1594609494331288
  0.8536133953118604  0.7146817510295109  0.1593044016728347
  0.9526328108335005  0.7703326011717661  0.1593080909545516
  0.8517009123953035  0.9360572526436021  0.1594111234572642
  0.1522130267014625  0.8816398979226591  0.1593742404811418
  0.9520942887547601  0.8815086096517893  0.1593768062131354
  0.4449389608227964  0.3856035686480490  0.1593003800882593
  0.4449328796456694  0.5981868914564483  0.1594050832212874
  0.6607497046915004  0.3831662617160246  0.1593853580195191
  0.6607562538534327  0.6005894775774610  0.1593750866780413
  0.5516689195560944  0.4918980204703143  0.1593903850446452
 
  0.00000000E+00  0.00000000E+00  0.00000000E+00
  0.00000000E+00  0.00000000E+00  0.00000000E+00
  0.00000000E+00  0.00000000E+00  0.00000000E+00
  0.00000000E+00  0.00000000E+00  0.00000000E+00
  0.00000000E+00  0.00000000E+00  0.00000000E+00
  0.00000000E+00  0.00000000E+00  0.00000000E+00
  0.00000000E+00  0.00000000E+00  0.00000000E+00
  0.00000000E+00  0.00000000E+00  0.00000000E+00
  0.00000000E+00  0.00000000E+00  0.00000000E+00
  0.00000000E+00  0.00000000E+00  0.00000000E+00
  0.00000000E+00  0.00000000E+00  0.00000000E+00
  0.00000000E+00  0.00000000E+00  0.00000000E+00
  0.00000000E+00  0.00000000E+00  0.00000000E+00
  0.00000000E+00  0.00000000E+00  0.00000000E+00
  0.00000000E+00  0.00000000E+00  0.00000000E+00
  0.00000000E+00  0.00000000E+00  0.00000000E+00
  0.00000000E+00  0.00000000E+00  0.00000000E+00
  0.00000000E+00  0.00000000E+00  0.00000000E+00
  0.00000000E+00  0.00000000E+00  0.00000000E+00
  0.00000000E+00  0.00000000E+00  0.00000000E+00
  0.00000000E+00  0.00000000E+00  0.00000000E+00
  0.00000000E+00  0.00000000E+00  0.00000000E+00
  0.00000000E+00  0.00000000E+00  0.00000000E+00
  0.00000000E+00  0.00000000E+00  0.00000000E+00
  0.00000000E+00  0.00000000E+00  0.00000000E+00
  0.00000000E+00  0.00000000E+00  0.00000000E+00
  0.00000000E+00  0.00000000E+00  0.00000000E+00
  0.00000000E+00  0.00000000E+00  0.00000000E+00
  0.00000000E+00  0.00000000E+00  0.00000000E+00
  0.00000000E+00  0.00000000E+00  0.00000000E+00
  0.00000000E+00  0.00000000E+00  0.00000000E+00
  0.00000000E+00  0.00000000E+00  0.00000000E+00
  0.00000000E+00  0.00000000E+00  0.00000000E+00
  0.00000000E+00  0.00000000E+00  0.00000000E+00
  0.00000000E+00  0.00000000E+00  0.00000000E+00
  0.00000000E+00  0.00000000E+00  0.00000000E+00
  0.00000000E+00  0.00000000E+00  0.00000000E+00
  0.00000000E+00  0.00000000E+00  0.00000000E+00
  0.00000000E+00  0.00000000E+00  0.00000000E+00
  0.00000000E+00  0.00000000E+00  0.00000000E+00
  0.00000000E+00  0.00000000E+00  0.00000000E+00
  0.00000000E+00  0.00000000E+00  0.00000000E+00
  0.00000000E+00  0.00000000E+00  0.00000000E+00
  0.00000000E+00  0.00000000E+00  0.00000000E+00
  0.00000000E+00  0.00000000E+00  0.00000000E+00
  0.00000000E+00  0.00000000E+00  0.00000000E+00
  0.00000000E+00  0.00000000E+00  0.00000000E+00
  0.00000000E+00  0.00000000E+00  0.00000000E+00
  0.00000000E+00  0.00000000E+00  0.00000000E+00
  0.00000000E+00  0.00000000E+00  0.00000000E+00
  0.00000000E+00  0.00000000E+00  0.00000000E+00
  0.00000000E+00  0.00000000E+00  0.00000000E+00
  0.00000000E+00  0.00000000E+00  0.00000000E+00
  0.00000000E+00  0.00000000E+00  0.00000000E+00
  0.00000000E+00  0.00000000E+00  0.00000000E+00
  0.00000000E+00  0.00000000E+00  0.00000000E+00
  0.00000000E+00  0.00000000E+00  0.00000000E+00
  0.00000000E+00  0.00000000E+00  0.00000000E+00
  0.00000000E+00  0.00000000E+00  0.00000000E+00
