 C Co  N  H  F                          
   1.00000000000000     
    22.1399993895999998    0.0000000000000000    0.0000000000000000
   -11.0699996947999999   19.1738019112000018    0.0000000000000000
     0.0000000000000000    0.0000000000000000   16.0000000000000000
   C    Co   N    H    F 
   206     1     4    20     8
Direct
  0.0002555148516477  0.9994017767673505  0.1010034059359677
  0.0373054226915183  0.0734848908159556  0.0988155179506363
  0.0002791360039493  0.1105349568725938  0.0987937725904810
  0.0373178560927196  0.1845935070902036  0.0957394151543625
  0.0002752031651442  0.2216245677939287  0.0965610339120622
  0.0373051908088294  0.2956839001169633  0.0936720179339211
  0.0002600081921307  0.3327132912237815  0.0952918124759640
  0.0372945527247394  0.4067884232440454  0.0935937507938020
  0.0002522015372117  0.4438154006050267  0.0956133312594259
  0.0372933594158973  0.5178994120829752  0.0955715493815547
  0.0002435924556692  0.5549205983193738  0.0974052847124296
  0.0372772287457215  0.6289943933126032  0.0987102709216603
  0.0002171133206710  0.6660172197170935  0.0998507893589150
  0.0372519245387839  0.7400883231602648  0.1015707046452491
  0.0001955694370287  0.7771169787699416  0.1017830027681094
  0.0372489475128522  0.8512056079981872  0.1027855374159991
  0.0002097058402841  0.8882433926219644  0.1022339331661308
  0.0372729721121760  0.9623420252007036  0.1016728008342384
  0.1113513792809827  0.9993944417924859  0.1009930007166903
  0.1483798050217852  0.0734599426546159  0.0977779933540599
  0.1113563344295871  0.1105118034618082  0.0961406626461271
  0.1483655620642488  0.1845370875790828  0.0920708226667324
  0.1113374560750398  0.2215872234769559  0.0917118585010440
  0.1483428304266784  0.2956260414841643  0.0880689644431929
  0.1113196846135595  0.3326825286371619  0.0893240898867038
  0.1483491488276841  0.4067690270078078  0.0873605494682901
  0.1113370230418012  0.4438109503275263  0.0901647113081528
  0.1483883988721738  0.5179083189487582  0.0904929375558424
  0.1113622294706407  0.5549257702468549  0.0938901778826268
  0.1483982000113699  0.6289961055278355  0.0958847482600092
  0.1113536087878060  0.6660112011595247  0.0987204498247947
  0.1483793108604777  0.7400790759947904  0.1010529826434377
  0.1113300244153829  0.7771128978597470  0.1025102691440899
  0.1483706645653707  0.8512039401062085  0.1037255586515860
  0.1113288425456395  0.8882515616348446  0.1034977467555055
  0.1483833196306474  0.9623486858763421  0.1025735411025288
  0.2224621275553092  0.9993979439785693  0.1023961113242297
  0.2594981961396147  0.0734718636363609  0.0995404221558562
  0.2224602618956381  0.1104920014274697  0.0963609965158709
  0.2594602622563709  0.1845256132190149  0.0920821867777053
  0.2224063787425083  0.2215376785108349  0.0893928219862424
  0.2594181151009505  0.2955871447128162  0.0856678609645514
  0.2223755451385453  0.3326325280123321  0.0846012836064146
  0.2594096592908566  0.4067313988198709  0.0825279912081908
  0.2223928389858427  0.4438124687547831  0.0840173891171979
  0.2594441891333232  0.5179198780130859  0.0847037259162961
  0.2224463804375421  0.5549524965604377  0.0883657379947211
  0.2594893309694709  0.6290169193354779  0.0912936120944081
  0.2224709564808637  0.6660218490324669  0.0952473742487165
  0.2594906036697707  0.7400705597395663  0.0986002410215427
  0.2224559353347472  0.7771004600289723  0.1013997313920323
  0.2594810110559321  0.8511826807583934  0.1035973580846479
  0.2224458579218120  0.8882426717806565  0.1042339251553693
  0.2594917572359000  0.9623481915785229  0.1040213267348248
  0.3335655206798831  0.9993934603516710  0.1043377905156049
  0.3706021585822940  0.0734836999086839  0.1025571944880108
  0.3335738209054233  0.1105109140367717  0.0994184375203093
  0.3705941460315961  0.1845608756977712  0.0957287157786292
  0.3335517356780222  0.2215571053576510  0.0916447849531433
  0.3705828074003119  0.2956210467512506  0.0880413162915812
  0.3335174004537755  0.3326310096406375  0.0849003613658055
  0.3705757189409715  0.4067381757384840  0.0828877657535639
  0.3335126693373939  0.4437910223978322  0.0817853249164927
  0.3705811859471293  0.5179294812597688  0.0825996346364510
  0.3335340126913665  0.5549814111495270  0.0842122246269121
  0.3705839078909037  0.6290497630612191  0.0876787946912968
  0.3335602645694075  0.6660667119254281  0.0911360664587630
  0.3705829820594028  0.7400877196602649  0.0954432578000727
  0.3335594736881790  0.7771029006919464  0.0989283867065031
  0.3705832713422949  0.8511615511010804  0.1024994631625235
  0.3335553421888540  0.8882219865737402  0.1042008441239782
  0.3705944701400201  0.9623272884206112  0.1052445678960777
  0.4446674902578467  0.9993691949528842  0.1058658871559496
  0.4817055307984361  0.0734767022652766  0.1052561694152098
  0.4446756304407643  0.1105220333595333  0.1029117538735119
  0.4817040482133451  0.1845888366866789  0.1000156769203857
  0.4446761438798090  0.2216011162857722  0.0960964298692706
  0.4817071927705586  0.2956543724246665  0.0925959844350698
  0.4446755703590091  0.3326676356644113  0.0886771000707891
  0.4817321257324467  0.4067606179031307  0.0864424228396365
  0.4446810663225568  0.4437933093268928  0.0839146261150333
  0.4817438455023648  0.5179173138201391  0.0841923246938540
  0.4446811317011249  0.5549685870737925  0.0840157117844444
  0.4817261686197272  0.6290497869244147  0.0870323114621696
  0.4446664342672203  0.6660761656669826  0.0890940858584112
  0.4816990437025666  0.7401095835595779  0.0937046716249554
  0.4446561297990599  0.7771250068736005  0.0967210932919762
  0.4816923621549433  0.8511626256947131  0.1011463466732652
  0.4446617729717924  0.8882091404479010  0.1034843374281706
  0.4816996804878064  0.9623019203216920  0.1057507902936848
  0.5557798872772908  0.9993451442650825  0.1063895543350157
  0.5928273267587839  0.0734568294520789  0.1067215931321874
  0.5557841796576972  0.1105107490932917  0.1055876690691385
  0.5928212812616668  0.1845961835579020  0.1035095217030602
  0.5557821989047467  0.2216205415317091  0.1003700890657549
  0.5928299986837543  0.2956844177698902  0.0971767286345070
  0.5557966092395747  0.3327010388487290  0.0934470765263251
  0.5928569494745703  0.4067861978437869  0.0911302511549893
  0.5558181323558204  0.4438116272052902  0.0880391841311667
  0.5928789672245135  0.5179156367786611  0.0876668896728601
  0.5558264688218388  0.5549563957690427  0.0863301582475333
  0.5928753936473321  0.6290492659062829  0.0884407159681239
  0.5558056537194660  0.6660719808033877  0.0892639677941815
  0.5928344329253283  0.7401220108373771  0.0932074059124266
  0.5557777769224957  0.7771403913270363  0.0956207688664080
  0.5928044198585531  0.8511775182901058  0.0999456157141454
  0.5557696417270634  0.8882067801886236  0.1024424993594300
  0.5928120475831705  0.9622882531171683  0.1053027850185494
  0.6668985610542914  0.9993450685968168  0.1056250879040778
  0.7039618230888558  0.0734527173334964  0.1063241003580687
  0.6669149298005170  0.1105020352811867  0.1064951619386114
  0.7039676958498984  0.1846016449895006  0.1050827468316973
  0.6669136110994750  0.2216385956851671  0.1034016260868276
  0.7039524944716513  0.2957120320921522  0.1007932917373621
  0.6669155093034824  0.3327345166727221  0.0978509927830955
  0.7039512204287768  0.4067994426219577  0.0957352680002546
  0.6669294168516128  0.4438249951146105  0.0927427495622258
  0.7039796874202174  0.5179142930846676  0.0920535748413621
  0.6669512959004891  0.5549548492656794  0.0899897112383048
  0.7040002456569048  0.6290444241954902  0.0912864429363943
  0.6669455611002229  0.6660746292084384  0.0909207494127760
  0.7039769920014669  0.7401329637958112  0.0938146544379530
  0.6669108142637937  0.7771466100014129  0.0951714495769637
  0.7039314687131364  0.8512019792136489  0.0988444105033272
  0.6668874526383880  0.8882232468851620  0.1011628356663053
  0.7039343101543476  0.9623035817950025  0.1039497745711143
  0.7780230291470223  0.9993667817854224  0.1038410895510435
  0.8150972266713911  0.0734748801457548  0.1042209468702566
  0.7780526032520377  0.1105102737169285  0.1051818245676581
  0.8151137088834608  0.1846055591722778  0.1038444989316429
  0.7780548207680380  0.2216394790310288  0.1038174495905174
  0.8150887287264407  0.2957118017318698  0.1016018015800045
  0.7780307150959511  0.3327398594138823  0.1004912716614333
  0.8150560040963023  0.4068084596560408  0.0986134154517969
  0.7780136558776742  0.4438327772911674  0.0968694101211489
  0.8150480048460216  0.5179070916028977  0.0962465574983122
  0.7780290742712249  0.5549483530865534  0.0944021429031560
  0.8150574610142174  0.6290186304282354  0.0953372684379792
  0.7780362897448410  0.6660575880237248  0.0941582647609996
  0.8150508894659301  0.7401086181850798  0.0964712533598180
  0.7780254071310485  0.7771456910200795  0.0962627490972096
  0.8150505327051931  0.8511978474393277  0.0988898296330031
  0.7780163272876087  0.8882392906559831  0.1000361918073596
  0.8150584955461804  0.9623256840747321  0.1022779587503575
  0.8891520569915584  0.9993929549879387  0.1020233644845996
  0.9262181461186878  0.0734948231183403  0.1013658956787823
  0.8891767688345046  0.1105289988311032  0.1022142490554519
  0.9262340507760642  0.1846095633285648  0.1002706887047967
  0.8891796142623187  0.2216343602635004  0.1011771755273968
  0.9262183140639567  0.2957040131857444  0.0988638160313604
  0.8891607432234678  0.3327282890745599  0.0995474247244399
  0.9261902888150472  0.4067989927608395  0.0978478505013143
  0.8891319123680977  0.4438255675210435  0.0981301829012463
  0.9261653593097806  0.5179001123436516  0.0977394348483688
  0.8891102605785721  0.5549263229287382  0.0975879221362254
  0.9261448594771482  0.6290006260486560  0.0985452901669503
  0.8890950576735791  0.6660262843498207  0.0980399820885605
  0.9261317200949979  0.7400935585581860  0.0998415395809469
  0.8890895529196088  0.7771229693448757  0.0993042888193930
  0.9261351263877793  0.8511942701107930  0.1009445054569680
  0.8891069058752106  0.8882364095042291  0.1006692206670558
  0.9261692462053724  0.9623344575301627  0.1015309296466852
  0.6110777336989720  0.4753367118375386  0.3784687423496631
  0.6818084264764549  0.5113663626714062  0.3469796611721924
  0.7015628021241292  0.5801250766377299  0.3393772855466460
  0.6444674070398648  0.5884977611850926  0.3694338765091622
  0.6482253100563357  0.6513818586340326  0.3925381779182842
  0.5882012528895340  0.6522136313484226  0.4190687834566686
  0.5859163089044864  0.7105345183983495  0.4565278704391350
  0.5177691647053966  0.6943042977714456  0.4582248790216349
  0.4767835602903543  0.6259194327080577  0.4211421209889150
  0.4073142129378679  0.5951435059762815  0.3942138267359206
  0.3722594980129258  0.5258459094634473  0.3659700432958904
  0.3043474385021109  0.4901150524886451  0.3267551024186529
  0.2835684169704681  0.4208392028422781  0.3243365165370360
  0.3381727420216121  0.4122583190725413  0.3621812081648098
  0.3331245045611247  0.3489783650504115  0.3864571711828354
  0.3920136927659066  0.3472264703362107  0.4155610653823949
  0.5034078587300770  0.3740134957458984  0.4255612899947182
  0.4607342805710486  0.3034438050584073  0.4560453850322979
  0.3928225905028115  0.2872374350511641  0.4504741181219746
  0.5745273958589596  0.4061957922880606  0.4066701957338607
  0.6549862255840478  0.2916584959529636  0.3656804677672998
  0.6178808466999602  0.3269314404008162  0.3537190105703155
  0.6129676672127172  0.3670334977779777  0.4186390145497465
  0.6448766153975920  0.3707647457313060  0.4960004979352155
  0.6812599907423030  0.3347920460660234  0.5082326827656964
  0.6866793141523625  0.2954795803847317  0.4429340432921550
  0.7742065780687275  0.7270007341633867  0.4356447046506631
  0.7161724421435954  0.7181851972520943  0.3894456513088329
  0.7228143912188869  0.7737060482237557  0.3397378963694246
  0.7862029272310169  0.8365874415603902  0.3359317849060149
  0.8439683655119107  0.8445965695032427  0.3813037753717353
  0.8377926525262881  0.7896772016685506  0.4312391929999864
  0.1926200957830933  0.1656078239170126  0.3256891437937803
  0.1349642380679806  0.1584938527488292  0.3704918482962096
  0.1419562435209697  0.2135164518528459  0.4208574994845227
  0.2063248947445488  0.2752761308517737  0.4264721926800075
  0.2644239044989059  0.2829954850357299  0.3813225801388905
  0.2568214815489350  0.2275267101345957  0.3308076981952899
  0.3084660281095980  0.6132332300766448  0.4397720419469662
  0.2735844380881343  0.6513305867050315  0.4385734271633375
  0.3006586086989387  0.7132864184278019  0.3922029747173134
  0.3628157369709847  0.7369589286446724  0.3470792785929332
  0.3975026930872539  0.6986825513858751  0.3479150962143026
  0.3706981459311706  0.6363745992482236  0.3942211260723287
  0.4906610580939240  0.5001675943765457  0.3945020864307124
  0.5874461029889779  0.5227140732583603  0.3858782396621833
  0.3943887946538073  0.4779076088438468  0.3806943672695632
  0.4604946827496727  0.4014732091611529  0.4065098442977936
  0.5203126770325374  0.5986615297918672  0.4046618271204630
  0.6591957704790656  0.2613559885606743  0.3145243933805625
  0.5932874378916267  0.3242455887866926  0.2936762853923625
  0.6403459460873540  0.4013217725324044  0.5466790589508214
  0.7052252309871734  0.3375290057708746  0.5687898863398292
  0.7154731115599267  0.2678801004923707  0.4522128010210438
  0.7692854089849080  0.6843464599483801  0.4747351102023100
  0.6779070902578144  0.7671290993955336  0.3040109644963205
  0.7903903776681012  0.8790952528178001  0.2972666058350926
  0.8935709396685223  0.8934530276841876  0.3777539123722018
  0.8824772064354861  0.7955098274451448  0.4668059537662704
  0.1876819795448062  0.1231148640521020  0.2863969458861849
  0.0848097815684046  0.1102989091312916  0.3660542037400919
  0.0973080463765882  0.2084713577865230  0.4557930904147519
  0.2118167950234149  0.3180745897864983  0.4657427270655988
  0.3015933052985589  0.2333271382281521  0.2954690302618043
  0.2874585683955866  0.5650321949167769  0.4758668063559084
  0.2252064837684120  0.6324877204056676  0.4737813402946448
  0.2734593556383779  0.7429926400134860  0.3912008951027230
  0.3843074511358579  0.7851501571207838  0.3109598116580905
  0.4456030026451399  0.7168200098684248  0.3123213737774249
  0.7211607651595469  0.4826084243587980  0.3263514663590242
  0.7632075941526396  0.6303293635191179  0.3082263069394720
  0.4832783112895707  0.2606521125532306  0.4843829151473438
  0.3371850801962852  0.2262640968827911  0.4747404216192575
  0.2234701728086102  0.3704025005859975  0.2902255569295589
  0.2682666803848746  0.5193957337004714  0.2952931707338679
  0.6404116389520169  0.7694356136392112  0.4874115209796529
  0.4936473047028686  0.7345349685439218  0.4908636993119324
 
  0.00000000E+00  0.00000000E+00  0.00000000E+00
  0.00000000E+00  0.00000000E+00  0.00000000E+00
  0.00000000E+00  0.00000000E+00  0.00000000E+00
  0.00000000E+00  0.00000000E+00  0.00000000E+00
  0.00000000E+00  0.00000000E+00  0.00000000E+00
  0.00000000E+00  0.00000000E+00  0.00000000E+00
  0.00000000E+00  0.00000000E+00  0.00000000E+00
  0.00000000E+00  0.00000000E+00  0.00000000E+00
  0.00000000E+00  0.00000000E+00  0.00000000E+00
  0.00000000E+00  0.00000000E+00  0.00000000E+00
  0.00000000E+00  0.00000000E+00  0.00000000E+00
  0.00000000E+00  0.00000000E+00  0.00000000E+00
  0.00000000E+00  0.00000000E+00  0.00000000E+00
  0.00000000E+00  0.00000000E+00  0.00000000E+00
  0.00000000E+00  0.00000000E+00  0.00000000E+00
  0.00000000E+00  0.00000000E+00  0.00000000E+00
  0.00000000E+00  0.00000000E+00  0.00000000E+00
  0.00000000E+00  0.00000000E+00  0.00000000E+00
  0.00000000E+00  0.00000000E+00  0.00000000E+00
  0.00000000E+00  0.00000000E+00  0.00000000E+00
  0.00000000E+00  0.00000000E+00  0.00000000E+00
  0.00000000E+00  0.00000000E+00  0.00000000E+00
  0.00000000E+00  0.00000000E+00  0.00000000E+00
  0.00000000E+00  0.00000000E+00  0.00000000E+00
  0.00000000E+00  0.00000000E+00  0.00000000E+00
  0.00000000E+00  0.00000000E+00  0.00000000E+00
  0.00000000E+00  0.00000000E+00  0.00000000E+00
  0.00000000E+00  0.00000000E+00  0.00000000E+00
  0.00000000E+00  0.00000000E+00  0.00000000E+00
  0.00000000E+00  0.00000000E+00  0.00000000E+00
  0.00000000E+00  0.00000000E+00  0.00000000E+00
  0.00000000E+00  0.00000000E+00  0.00000000E+00
  0.00000000E+00  0.00000000E+00  0.00000000E+00
  0.00000000E+00  0.00000000E+00  0.00000000E+00
  0.00000000E+00  0.00000000E+00  0.00000000E+00
  0.00000000E+00  0.00000000E+00  0.00000000E+00
  0.00000000E+00  0.00000000E+00  0.00000000E+00
  0.00000000E+00  0.00000000E+00  0.00000000E+00
  0.00000000E+00  0.00000000E+00  0.00000000E+00
  0.00000000E+00  0.00000000E+00  0.00000000E+00
  0.00000000E+00  0.00000000E+00  0.00000000E+00
  0.00000000E+00  0.00000000E+00  0.00000000E+00
  0.00000000E+00  0.00000000E+00  0.00000000E+00
  0.00000000E+00  0.00000000E+00  0.00000000E+00
  0.00000000E+00  0.00000000E+00  0.00000000E+00
  0.00000000E+00  0.00000000E+00  0.00000000E+00
  0.00000000E+00  0.00000000E+00  0.00000000E+00
  0.00000000E+00  0.00000000E+00  0.00000000E+00
  0.00000000E+00  0.00000000E+00  0.00000000E+00
  0.00000000E+00  0.00000000E+00  0.00000000E+00
  0.00000000E+00  0.00000000E+00  0.00000000E+00
  0.00000000E+00  0.00000000E+00  0.00000000E+00
  0.00000000E+00  0.00000000E+00  0.00000000E+00
  0.00000000E+00  0.00000000E+00  0.00000000E+00
  0.00000000E+00  0.00000000E+00  0.00000000E+00
  0.00000000E+00  0.00000000E+00  0.00000000E+00
  0.00000000E+00  0.00000000E+00  0.00000000E+00
  0.00000000E+00  0.00000000E+00  0.00000000E+00
  0.00000000E+00  0.00000000E+00  0.00000000E+00
  0.00000000E+00  0.00000000E+00  0.00000000E+00
  0.00000000E+00  0.00000000E+00  0.00000000E+00
  0.00000000E+00  0.00000000E+00  0.00000000E+00
  0.00000000E+00  0.00000000E+00  0.00000000E+00
  0.00000000E+00  0.00000000E+00  0.00000000E+00
  0.00000000E+00  0.00000000E+00  0.00000000E+00
  0.00000000E+00  0.00000000E+00  0.00000000E+00
  0.00000000E+00  0.00000000E+00  0.00000000E+00
  0.00000000E+00  0.00000000E+00  0.00000000E+00
  0.00000000E+00  0.00000000E+00  0.00000000E+00
  0.00000000E+00  0.00000000E+00  0.00000000E+00
  0.00000000E+00  0.00000000E+00  0.00000000E+00
  0.00000000E+00  0.00000000E+00  0.00000000E+00
  0.00000000E+00  0.00000000E+00  0.00000000E+00
  0.00000000E+00  0.00000000E+00  0.00000000E+00
  0.00000000E+00  0.00000000E+00  0.00000000E+00
  0.00000000E+00  0.00000000E+00  0.00000000E+00
  0.00000000E+00  0.00000000E+00  0.00000000E+00
  0.00000000E+00  0.00000000E+00  0.00000000E+00
  0.00000000E+00  0.00000000E+00  0.00000000E+00
  0.00000000E+00  0.00000000E+00  0.00000000E+00
  0.00000000E+00  0.00000000E+00  0.00000000E+00
  0.00000000E+00  0.00000000E+00  0.00000000E+00
  0.00000000E+00  0.00000000E+00  0.00000000E+00
  0.00000000E+00  0.00000000E+00  0.00000000E+00
  0.00000000E+00  0.00000000E+00  0.00000000E+00
  0.00000000E+00  0.00000000E+00  0.00000000E+00
  0.00000000E+00  0.00000000E+00  0.00000000E+00
  0.00000000E+00  0.00000000E+00  0.00000000E+00
  0.00000000E+00  0.00000000E+00  0.00000000E+00
  0.00000000E+00  0.00000000E+00  0.00000000E+00
  0.00000000E+00  0.00000000E+00  0.00000000E+00
  0.00000000E+00  0.00000000E+00  0.00000000E+00
  0.00000000E+00  0.00000000E+00  0.00000000E+00
  0.00000000E+00  0.00000000E+00  0.00000000E+00
  0.00000000E+00  0.00000000E+00  0.00000000E+00
  0.00000000E+00  0.00000000E+00  0.00000000E+00
  0.00000000E+00  0.00000000E+00  0.00000000E+00
  0.00000000E+00  0.00000000E+00  0.00000000E+00
  0.00000000E+00  0.00000000E+00  0.00000000E+00
  0.00000000E+00  0.00000000E+00  0.00000000E+00
  0.00000000E+00  0.00000000E+00  0.00000000E+00
  0.00000000E+00  0.00000000E+00  0.00000000E+00
  0.00000000E+00  0.00000000E+00  0.00000000E+00
  0.00000000E+00  0.00000000E+00  0.00000000E+00
  0.00000000E+00  0.00000000E+00  0.00000000E+00
  0.00000000E+00  0.00000000E+00  0.00000000E+00
  0.00000000E+00  0.00000000E+00  0.00000000E+00
  0.00000000E+00  0.00000000E+00  0.00000000E+00
  0.00000000E+00  0.00000000E+00  0.00000000E+00
  0.00000000E+00  0.00000000E+00  0.00000000E+00
  0.00000000E+00  0.00000000E+00  0.00000000E+00
  0.00000000E+00  0.00000000E+00  0.00000000E+00
  0.00000000E+00  0.00000000E+00  0.00000000E+00
  0.00000000E+00  0.00000000E+00  0.00000000E+00
  0.00000000E+00  0.00000000E+00  0.00000000E+00
  0.00000000E+00  0.00000000E+00  0.00000000E+00
  0.00000000E+00  0.00000000E+00  0.00000000E+00
  0.00000000E+00  0.00000000E+00  0.00000000E+00
  0.00000000E+00  0.00000000E+00  0.00000000E+00
  0.00000000E+00  0.00000000E+00  0.00000000E+00
  0.00000000E+00  0.00000000E+00  0.00000000E+00
  0.00000000E+00  0.00000000E+00  0.00000000E+00
  0.00000000E+00  0.00000000E+00  0.00000000E+00
  0.00000000E+00  0.00000000E+00  0.00000000E+00
  0.00000000E+00  0.00000000E+00  0.00000000E+00
  0.00000000E+00  0.00000000E+00  0.00000000E+00
  0.00000000E+00  0.00000000E+00  0.00000000E+00
  0.00000000E+00  0.00000000E+00  0.00000000E+00
  0.00000000E+00  0.00000000E+00  0.00000000E+00
  0.00000000E+00  0.00000000E+00  0.00000000E+00
  0.00000000E+00  0.00000000E+00  0.00000000E+00
  0.00000000E+00  0.00000000E+00  0.00000000E+00
  0.00000000E+00  0.00000000E+00  0.00000000E+00
  0.00000000E+00  0.00000000E+00  0.00000000E+00
  0.00000000E+00  0.00000000E+00  0.00000000E+00
  0.00000000E+00  0.00000000E+00  0.00000000E+00
  0.00000000E+00  0.00000000E+00  0.00000000E+00
  0.00000000E+00  0.00000000E+00  0.00000000E+00
  0.00000000E+00  0.00000000E+00  0.00000000E+00
  0.00000000E+00  0.00000000E+00  0.00000000E+00
  0.00000000E+00  0.00000000E+00  0.00000000E+00
  0.00000000E+00  0.00000000E+00  0.00000000E+00
  0.00000000E+00  0.00000000E+00  0.00000000E+00
  0.00000000E+00  0.00000000E+00  0.00000000E+00
  0.00000000E+00  0.00000000E+00  0.00000000E+00
  0.00000000E+00  0.00000000E+00  0.00000000E+00
  0.00000000E+00  0.00000000E+00  0.00000000E+00
  0.00000000E+00  0.00000000E+00  0.00000000E+00
  0.00000000E+00  0.00000000E+00  0.00000000E+00
  0.00000000E+00  0.00000000E+00  0.00000000E+00
  0.00000000E+00  0.00000000E+00  0.00000000E+00
  0.00000000E+00  0.00000000E+00  0.00000000E+00
  0.00000000E+00  0.00000000E+00  0.00000000E+00
  0.00000000E+00  0.00000000E+00  0.00000000E+00
  0.00000000E+00  0.00000000E+00  0.00000000E+00
  0.00000000E+00  0.00000000E+00  0.00000000E+00
  0.00000000E+00  0.00000000E+00  0.00000000E+00
  0.00000000E+00  0.00000000E+00  0.00000000E+00
  0.00000000E+00  0.00000000E+00  0.00000000E+00
  0.00000000E+00  0.00000000E+00  0.00000000E+00
  0.00000000E+00  0.00000000E+00  0.00000000E+00
  0.00000000E+00  0.00000000E+00  0.00000000E+00
  0.00000000E+00  0.00000000E+00  0.00000000E+00
  0.00000000E+00  0.00000000E+00  0.00000000E+00
  0.00000000E+00  0.00000000E+00  0.00000000E+00
  0.00000000E+00  0.00000000E+00  0.00000000E+00
  0.00000000E+00  0.00000000E+00  0.00000000E+00
  0.00000000E+00  0.00000000E+00  0.00000000E+00
  0.00000000E+00  0.00000000E+00  0.00000000E+00
  0.00000000E+00  0.00000000E+00  0.00000000E+00
  0.00000000E+00  0.00000000E+00  0.00000000E+00
  0.00000000E+00  0.00000000E+00  0.00000000E+00
  0.00000000E+00  0.00000000E+00  0.00000000E+00
  0.00000000E+00  0.00000000E+00  0.00000000E+00
  0.00000000E+00  0.00000000E+00  0.00000000E+00
  0.00000000E+00  0.00000000E+00  0.00000000E+00
  0.00000000E+00  0.00000000E+00  0.00000000E+00
  0.00000000E+00  0.00000000E+00  0.00000000E+00
  0.00000000E+00  0.00000000E+00  0.00000000E+00
  0.00000000E+00  0.00000000E+00  0.00000000E+00
  0.00000000E+00  0.00000000E+00  0.00000000E+00
  0.00000000E+00  0.00000000E+00  0.00000000E+00
  0.00000000E+00  0.00000000E+00  0.00000000E+00
  0.00000000E+00  0.00000000E+00  0.00000000E+00
  0.00000000E+00  0.00000000E+00  0.00000000E+00
  0.00000000E+00  0.00000000E+00  0.00000000E+00
  0.00000000E+00  0.00000000E+00  0.00000000E+00
  0.00000000E+00  0.00000000E+00  0.00000000E+00
  0.00000000E+00  0.00000000E+00  0.00000000E+00
  0.00000000E+00  0.00000000E+00  0.00000000E+00
  0.00000000E+00  0.00000000E+00  0.00000000E+00
  0.00000000E+00  0.00000000E+00  0.00000000E+00
  0.00000000E+00  0.00000000E+00  0.00000000E+00
  0.00000000E+00  0.00000000E+00  0.00000000E+00
  0.00000000E+00  0.00000000E+00  0.00000000E+00
  0.00000000E+00  0.00000000E+00  0.00000000E+00
  0.00000000E+00  0.00000000E+00  0.00000000E+00
  0.00000000E+00  0.00000000E+00  0.00000000E+00
  0.00000000E+00  0.00000000E+00  0.00000000E+00
  0.00000000E+00  0.00000000E+00  0.00000000E+00
  0.00000000E+00  0.00000000E+00  0.00000000E+00
  0.00000000E+00  0.00000000E+00  0.00000000E+00
  0.00000000E+00  0.00000000E+00  0.00000000E+00
  0.00000000E+00  0.00000000E+00  0.00000000E+00
  0.00000000E+00  0.00000000E+00  0.00000000E+00
  0.00000000E+00  0.00000000E+00  0.00000000E+00
  0.00000000E+00  0.00000000E+00  0.00000000E+00
  0.00000000E+00  0.00000000E+00  0.00000000E+00
  0.00000000E+00  0.00000000E+00  0.00000000E+00
  0.00000000E+00  0.00000000E+00  0.00000000E+00
  0.00000000E+00  0.00000000E+00  0.00000000E+00
  0.00000000E+00  0.00000000E+00  0.00000000E+00
  0.00000000E+00  0.00000000E+00  0.00000000E+00
  0.00000000E+00  0.00000000E+00  0.00000000E+00
  0.00000000E+00  0.00000000E+00  0.00000000E+00
  0.00000000E+00  0.00000000E+00  0.00000000E+00
  0.00000000E+00  0.00000000E+00  0.00000000E+00
  0.00000000E+00  0.00000000E+00  0.00000000E+00
  0.00000000E+00  0.00000000E+00  0.00000000E+00
  0.00000000E+00  0.00000000E+00  0.00000000E+00
  0.00000000E+00  0.00000000E+00  0.00000000E+00
  0.00000000E+00  0.00000000E+00  0.00000000E+00
  0.00000000E+00  0.00000000E+00  0.00000000E+00
  0.00000000E+00  0.00000000E+00  0.00000000E+00
  0.00000000E+00  0.00000000E+00  0.00000000E+00
  0.00000000E+00  0.00000000E+00  0.00000000E+00
  0.00000000E+00  0.00000000E+00  0.00000000E+00
  0.00000000E+00  0.00000000E+00  0.00000000E+00
  0.00000000E+00  0.00000000E+00  0.00000000E+00
  0.00000000E+00  0.00000000E+00  0.00000000E+00
  0.00000000E+00  0.00000000E+00  0.00000000E+00
  0.00000000E+00  0.00000000E+00  0.00000000E+00
  0.00000000E+00  0.00000000E+00  0.00000000E+00
  0.00000000E+00  0.00000000E+00  0.00000000E+00
  0.00000000E+00  0.00000000E+00  0.00000000E+00
  0.00000000E+00  0.00000000E+00  0.00000000E+00
  0.00000000E+00  0.00000000E+00  0.00000000E+00
  0.00000000E+00  0.00000000E+00  0.00000000E+00
  0.00000000E+00  0.00000000E+00  0.00000000E+00
