 C  N Fe                                
   1.00000000000000     
     8.3789509627633638   -0.0000029357250302    0.0000102594067741
    -0.0000025969936536    8.3789949835905855   -0.0000001713530929
     0.0000237448866661    0.0000001696649445   17.6617656346086456
   C    N    Fe
    20     4     1
Direct
  0.5000093806462388  0.0866539766086430  0.1542527786488746
  0.3536813375459341  0.1684083274889857  0.1542371470874136
  0.6463373176813350  0.1684162977807684  0.1542178297515917
  0.7957007409445009  0.9152003906395617  0.1541756404602616
  0.7956907357945729  0.0847552587941109  0.1541740529057037
  0.9152599825211705  0.2042648944085416  0.1541745424835219
  0.8314585139954819  0.3536639450495840  0.1542116883086651
  0.2043270458256872  0.0847445934201657  0.1541956103776008
  0.0847571100932191  0.2042557104745042  0.1541854343717312
  0.1685613065094124  0.3536532171503792  0.1542248665424618
  0.0866268115378376  0.4999693831597637  0.1542364607058004
  0.1685696160715635  0.6462812946248817  0.1542212557227157
  0.3536905117222435  0.8315285260725642  0.1542405558813467
  0.2043374775652654  0.9151900490099251  0.1541933799926338
  0.0847673861053697  0.7956799468358190  0.1541778030549142
  0.6463465639860431  0.8315366146600581  0.1542264081343910
  0.8314666380896504  0.6462918966961647  0.1542131522373042
  0.9152714155332030  0.7956892780064068  0.1541706795228120
  0.5000187152114417  0.9132911065422136  0.1542578310312239
  0.9134011033674523  0.4999754994708830  0.1542313545576161
  0.6663662684076360  0.3336560186620560  0.1542247228955932
  0.3336526629893371  0.3336475698209556  0.1542418389334807
  0.3336616810961308  0.6662890721995498  0.1542449680068695
  0.6663752679434476  0.6662975167316848  0.1542340970018808
  0.5000139687469340  0.4999725332800006  0.1542489112043848
 
  0.00000000E+00  0.00000000E+00  0.00000000E+00
  0.00000000E+00  0.00000000E+00  0.00000000E+00
  0.00000000E+00  0.00000000E+00  0.00000000E+00
  0.00000000E+00  0.00000000E+00  0.00000000E+00
  0.00000000E+00  0.00000000E+00  0.00000000E+00
  0.00000000E+00  0.00000000E+00  0.00000000E+00
  0.00000000E+00  0.00000000E+00  0.00000000E+00
  0.00000000E+00  0.00000000E+00  0.00000000E+00
  0.00000000E+00  0.00000000E+00  0.00000000E+00
  0.00000000E+00  0.00000000E+00  0.00000000E+00
  0.00000000E+00  0.00000000E+00  0.00000000E+00
  0.00000000E+00  0.00000000E+00  0.00000000E+00
  0.00000000E+00  0.00000000E+00  0.00000000E+00
  0.00000000E+00  0.00000000E+00  0.00000000E+00
  0.00000000E+00  0.00000000E+00  0.00000000E+00
  0.00000000E+00  0.00000000E+00  0.00000000E+00
  0.00000000E+00  0.00000000E+00  0.00000000E+00
  0.00000000E+00  0.00000000E+00  0.00000000E+00
  0.00000000E+00  0.00000000E+00  0.00000000E+00
  0.00000000E+00  0.00000000E+00  0.00000000E+00
  0.00000000E+00  0.00000000E+00  0.00000000E+00
  0.00000000E+00  0.00000000E+00  0.00000000E+00
  0.00000000E+00  0.00000000E+00  0.00000000E+00
  0.00000000E+00  0.00000000E+00  0.00000000E+00
  0.00000000E+00  0.00000000E+00  0.00000000E+00
