 C  N Mn                                
   1.00000000000000     
     8.4203685063044809    0.0055737623132534    0.0005306957297265
     0.0055654946096410    8.4205090867624417   -0.0012991219311118
     0.0012469401267963   -0.0030547433750076   19.8724578948535395
   C    N    Mn
    21     3     1
Direct
  0.4991212497180266  0.0830589965701419  0.1543217629028786
  0.3527214661154913  0.1655411801374988  0.1542926513748394
  0.6437823633096128  0.1658944999923451  0.1542738975839785
  0.7946591933458756  0.9165212965278207  0.1540556288014053
  0.7937404326948302  0.0835432458872468  0.1540765131053775
  0.9164399449931904  0.2062589155562867  0.1540452253570029
  0.8340824202062175  0.3562007457115952  0.1542015612618711
  0.2045148212203123  0.0839493970410210  0.1540851171838415
  0.0834811640077517  0.2053375707790382  0.1540512563233102
  0.1690156474856090  0.3535882200400776  0.1542321159659772
  0.0887720592526643  0.5009138033247368  0.1542523044622519
  0.1681683445615315  0.6477466989197612  0.1542410478338984
  0.3522380201700768  0.8318266143423189  0.1542629579429605
  0.2038457683745941  0.9163707121300327  0.1540867941659852
  0.0836139216270038  0.7961351397866118  0.1540683975170565
  0.6463959298695461  0.8309769493355613  0.1542240499241212
  0.8344348209597232  0.6472716086576294  0.1542060890770707
  0.9160384788845879  0.7954619834986337  0.1540449021343290
  0.4990708835992897  0.9112281146343858  0.1542928996151771
  0.9169182401090177  0.5008664707184860  0.1542275237887729
  0.6632768631911357  0.3366973423765736  0.1543600353283573
  0.3334771076085913  0.3308773242062460  0.1543735046958603
  0.3312611588976569  0.6687380601534902  0.1543543827275413
  0.6690908959101574  0.6665278640971156  0.1543088087993388
  0.5021883638186289  0.4977801631635226  0.1544735819475971
 
  0.00000000E+00  0.00000000E+00  0.00000000E+00
  0.00000000E+00  0.00000000E+00  0.00000000E+00
  0.00000000E+00  0.00000000E+00  0.00000000E+00
  0.00000000E+00  0.00000000E+00  0.00000000E+00
  0.00000000E+00  0.00000000E+00  0.00000000E+00
  0.00000000E+00  0.00000000E+00  0.00000000E+00
  0.00000000E+00  0.00000000E+00  0.00000000E+00
  0.00000000E+00  0.00000000E+00  0.00000000E+00
  0.00000000E+00  0.00000000E+00  0.00000000E+00
  0.00000000E+00  0.00000000E+00  0.00000000E+00
  0.00000000E+00  0.00000000E+00  0.00000000E+00
  0.00000000E+00  0.00000000E+00  0.00000000E+00
  0.00000000E+00  0.00000000E+00  0.00000000E+00
  0.00000000E+00  0.00000000E+00  0.00000000E+00
  0.00000000E+00  0.00000000E+00  0.00000000E+00
  0.00000000E+00  0.00000000E+00  0.00000000E+00
  0.00000000E+00  0.00000000E+00  0.00000000E+00
  0.00000000E+00  0.00000000E+00  0.00000000E+00
  0.00000000E+00  0.00000000E+00  0.00000000E+00
  0.00000000E+00  0.00000000E+00  0.00000000E+00
  0.00000000E+00  0.00000000E+00  0.00000000E+00
  0.00000000E+00  0.00000000E+00  0.00000000E+00
  0.00000000E+00  0.00000000E+00  0.00000000E+00
  0.00000000E+00  0.00000000E+00  0.00000000E+00
  0.00000000E+00  0.00000000E+00  0.00000000E+00
