 C  N Ti                                
   1.00000000000000     
    12.4711282269692223    0.0000000000000000    0.0000000000000000
    -0.0000000000000004   12.8385570619139671    0.0000000000000000
     0.0000000000000003    0.0000000000000000   19.8713392819153718
   C    N    Ti
    57     1     1
Direct
  0.0520760302286552  0.0477260358815646  0.1597365416616371
  0.1520795241487931  0.1023344771784829  0.1595836315324633
  0.1514610175401901  0.2133094057052663  0.1593675454396442
  0.0517997369497144  0.2688804006362366  0.1594095324395792
  0.2524908317015024  0.0470968790664461  0.1592591605430290
  0.3524046686070794  0.1022597186736475  0.1583950955440655
  0.3516361181382903  0.2139940587948189  0.1577152971413358
  0.2511192415688765  0.2685501019962198  0.1585910754235019
  0.4526906744400046  0.0469913475506787  0.1583863337969378
  0.5522743047770332  0.1044046350711437  0.1582439550465248
  0.5520412481590373  0.2158401910251088  0.1582224979542805
  0.4508849924043625  0.2713722196581925  0.1577426076720681
  0.6521493950574587  0.0476944820448886  0.1584130825169034
  0.7518350528011107  0.1034255624602005  0.1582807489650544
  0.7519283707770368  0.2154888540009162  0.1577332017141695
  0.6524460785840155  0.2730288812102868  0.1579533790794950
  0.8518700937518857  0.0478616476626917  0.1589831862754251
  0.9520366102053565  0.1029097379468594  0.1593757830833351
  0.9520778317780714  0.2140908884370684  0.1591534450694959
  0.8522851671860704  0.2700774986267651  0.1584113478650583
  0.0517337951813832  0.3805340214633036  0.1591993546106044
  0.1502705919376053  0.4359329978361553  0.1590142704261835
  0.1505264255414213  0.5474620417600917  0.1589222553682762
  0.0521475924787859  0.6032889970923087  0.1591916128172651
  0.2490258524822398  0.3796618948092065  0.1585545261552252
  0.3475488229615193  0.4345923987249545  0.1576859754896044
  0.3476889845194107  0.5479790620628470  0.1563786722976920
  0.2493638698926164  0.6033426417851916  0.1578130697994046
  0.7547883090418445  0.4372798924479397  0.1590281225160555
  0.7565952201444043  0.5507045461220454  0.1596520865411944
  0.8539187974187913  0.3814750059614240  0.1586674791173031
  0.9531510119616711  0.4364548202549501  0.1590158237401171
  0.9536510500298966  0.5477092096509388  0.1589823515610251
  0.8551677500741558  0.6043740326353400  0.1588321497093280
  0.0526536361672562  0.7150001247351280  0.1593792236353011
  0.1521324615529854  0.7701704253094269  0.1591273616336016
  0.0523609727990314  0.9365809869315723  0.1597650190430207
  0.2518138031016250  0.7144319425896470  0.1579181700462666
  0.3523943133210356  0.7684794423633691  0.1572069797592843
  0.3527977424236927  0.8801598427108929  0.1583524448804748
  0.2527324003872488  0.9358599836410169  0.1592589327161308
  0.4519455755193215  0.7104910039931845  0.1565815705169261
  0.5536412770875538  0.7656944653881244  0.1583284323345092
  0.5533047391251005  0.8778947186112898  0.1584053662545491
  0.4530984680223871  0.9350295780106981  0.1583905186353063
  0.6552555400287138  0.7104713741675676  0.1591693013847829
  0.7535145509116099  0.7690475466478236  0.1583417127557512
  0.7523759753469662  0.8808224405135040  0.1584482436581049
  0.6523837602983816  0.9357092034255794  0.1585485245752430
  0.8540521651236547  0.7154289967146692  0.1588595501256485
  0.9532735094763106  0.7707063515791674  0.1593608384482463
  0.8521709229666800  0.9365236782591103  0.1590133258611678
  0.1523289434434456  0.8812399396250307  0.1595487788406467
  0.9525967692885673  0.8817499112292917  0.1594670353286442
  0.4468324251206831  0.3818411693473017  0.1591931461184253
  0.4470980466241140  0.6002881022564023  0.1558704492487595
  0.6554162459808444  0.3842350251814041  0.1597506618261431
  0.6601089777907736  0.6025765837897687  0.1620349955894425
  0.5487318056112021  0.4920185728617641  0.1971642773422598
 
  0.00000000E+00  0.00000000E+00  0.00000000E+00
  0.00000000E+00  0.00000000E+00  0.00000000E+00
  0.00000000E+00  0.00000000E+00  0.00000000E+00
  0.00000000E+00  0.00000000E+00  0.00000000E+00
  0.00000000E+00  0.00000000E+00  0.00000000E+00
  0.00000000E+00  0.00000000E+00  0.00000000E+00
  0.00000000E+00  0.00000000E+00  0.00000000E+00
  0.00000000E+00  0.00000000E+00  0.00000000E+00
  0.00000000E+00  0.00000000E+00  0.00000000E+00
  0.00000000E+00  0.00000000E+00  0.00000000E+00
  0.00000000E+00  0.00000000E+00  0.00000000E+00
  0.00000000E+00  0.00000000E+00  0.00000000E+00
  0.00000000E+00  0.00000000E+00  0.00000000E+00
  0.00000000E+00  0.00000000E+00  0.00000000E+00
  0.00000000E+00  0.00000000E+00  0.00000000E+00
  0.00000000E+00  0.00000000E+00  0.00000000E+00
  0.00000000E+00  0.00000000E+00  0.00000000E+00
  0.00000000E+00  0.00000000E+00  0.00000000E+00
  0.00000000E+00  0.00000000E+00  0.00000000E+00
  0.00000000E+00  0.00000000E+00  0.00000000E+00
  0.00000000E+00  0.00000000E+00  0.00000000E+00
  0.00000000E+00  0.00000000E+00  0.00000000E+00
  0.00000000E+00  0.00000000E+00  0.00000000E+00
  0.00000000E+00  0.00000000E+00  0.00000000E+00
  0.00000000E+00  0.00000000E+00  0.00000000E+00
  0.00000000E+00  0.00000000E+00  0.00000000E+00
  0.00000000E+00  0.00000000E+00  0.00000000E+00
  0.00000000E+00  0.00000000E+00  0.00000000E+00
  0.00000000E+00  0.00000000E+00  0.00000000E+00
  0.00000000E+00  0.00000000E+00  0.00000000E+00
  0.00000000E+00  0.00000000E+00  0.00000000E+00
  0.00000000E+00  0.00000000E+00  0.00000000E+00
  0.00000000E+00  0.00000000E+00  0.00000000E+00
  0.00000000E+00  0.00000000E+00  0.00000000E+00
  0.00000000E+00  0.00000000E+00  0.00000000E+00
  0.00000000E+00  0.00000000E+00  0.00000000E+00
  0.00000000E+00  0.00000000E+00  0.00000000E+00
  0.00000000E+00  0.00000000E+00  0.00000000E+00
  0.00000000E+00  0.00000000E+00  0.00000000E+00
  0.00000000E+00  0.00000000E+00  0.00000000E+00
  0.00000000E+00  0.00000000E+00  0.00000000E+00
  0.00000000E+00  0.00000000E+00  0.00000000E+00
  0.00000000E+00  0.00000000E+00  0.00000000E+00
  0.00000000E+00  0.00000000E+00  0.00000000E+00
  0.00000000E+00  0.00000000E+00  0.00000000E+00
  0.00000000E+00  0.00000000E+00  0.00000000E+00
  0.00000000E+00  0.00000000E+00  0.00000000E+00
  0.00000000E+00  0.00000000E+00  0.00000000E+00
  0.00000000E+00  0.00000000E+00  0.00000000E+00
  0.00000000E+00  0.00000000E+00  0.00000000E+00
  0.00000000E+00  0.00000000E+00  0.00000000E+00
  0.00000000E+00  0.00000000E+00  0.00000000E+00
  0.00000000E+00  0.00000000E+00  0.00000000E+00
  0.00000000E+00  0.00000000E+00  0.00000000E+00
  0.00000000E+00  0.00000000E+00  0.00000000E+00
  0.00000000E+00  0.00000000E+00  0.00000000E+00
  0.00000000E+00  0.00000000E+00  0.00000000E+00
  0.00000000E+00  0.00000000E+00  0.00000000E+00
  0.00000000E+00  0.00000000E+00  0.00000000E+00
