 C  N Cu                                
   1.00000000000000     
    12.5010809328657384    0.0000000000000000    0.0000000000000000
    -0.0000000000000004   12.7972399292766408    0.0000000000000000
     0.0000000000000003    0.0000000000000000   19.8713392819153718
   C    N    Cu
    57     1     1
Direct
  0.0521127263589348  0.0476869823891307  0.1594036695560936
  0.1521892923190938  0.1022722172150519  0.1593744699770493
  0.1516765422994659  0.2131392250329472  0.1592937394292731
  0.0520945292584422  0.2684302607379817  0.1592448674889687
  0.2529595840214094  0.0475513633288624  0.1594081275279537
  0.3529177252277557  0.1032867572485699  0.1594252423973173
  0.3522653012306239  0.2156846254689814  0.1593753182723077
  0.2513551707466932  0.2688008401039228  0.1592933839761455
  0.4526779585672502  0.0474059031334421  0.1594657216992735
  0.5522892964483802  0.1056178743896772  0.1594785050880294
  0.5523928039156276  0.2171590236350112  0.1594462893986220
  0.4516075349321872  0.2745763663548165  0.1593865858310749
  0.6520222838444943  0.0477672893812520  0.1594655729080049
  0.7517550244788572  0.1032476312933198  0.1594252618416986
  0.7524725652545007  0.2155465868957757  0.1593716713053743
  0.6534073070150184  0.2738649328016463  0.1593869906515094
  0.8516878458539062  0.0475166662080426  0.1594032253313528
  0.9521579042287979  0.1024604401717346  0.1593692500798979
  0.9525852030592198  0.2135507651731609  0.1593005379547718
  0.8528750392294210  0.2695299070360830  0.1593042503080361
  0.0518787710804707  0.3803470593534992  0.1592022789130534
  0.1498718090837214  0.4360581385904734  0.1591919686419809
  0.1495887197342556  0.5475377072714505  0.1591904459615956
  0.0517075995925370  0.6033827565090848  0.1592116167488398
  0.2485589757514213  0.3796294282442079  0.1592463944071320
  0.3456670555649163  0.4357718257018031  0.1592809073792331
  0.3448883611946460  0.5484340413879599  0.1592819703324826
  0.2478880596569835  0.6040813758327763  0.1592407217823274
  0.7566896898253279  0.4366673217152895  0.1592713618877247
  0.7578349831598614  0.5500838199310387  0.1592840450720233
  0.8549418054007423  0.3806959903366988  0.1592501604125457
  0.9538131824065305  0.4361987253174482  0.1591898177192802
  0.9538831538781026  0.5474863713324970  0.1591800673331424
  0.8556818694542523  0.6043683517079897  0.1592274598859800
  0.0522316669267021  0.7153344570872683  0.1592574904147774
  0.1516352822876524  0.7706588843059853  0.1593100568826454
  0.0521093804417351  0.9365257980270044  0.1594103225589091
  0.2510545185306154  0.7148821247003461  0.1593057975023366
  0.3519987202497256  0.7679278999195528  0.1593774838081361
  0.3527430809430523  0.8800648060506959  0.1594287286682003
  0.2528967792464509  0.9361987067159933  0.1594109785972311
  0.4509891328665688  0.7086139468679057  0.1593908274396151
  0.5530241969992425  0.7643286567625108  0.1594420683864418
  0.5529996159227610  0.8765823035951683  0.1594734093471203
  0.4528800460926209  0.9349990828125396  0.1594676015587849
  0.6551700790355772  0.7084655578743911  0.1593888026885328
  0.7530120281632594  0.7681517504243532  0.1593737079197132
  0.7518161172041420  0.8803708463936245  0.1594271018713233
  0.6520759537880175  0.9353885641564060  0.1594728183985319
  0.8537913482709839  0.7151738107398485  0.1592966736861687
  0.9530605673787292  0.7708429492321586  0.1593153254192839
  0.8517093199630481  0.9362053297514307  0.1594098064791682
  0.1520708247352493  0.8816122238727879  0.1593745015658578
  0.9523323862908634  0.8817501745051519  0.1593785750097647
  0.4456107851998751  0.3852101306665747  0.1593347560217433
  0.4444790715440557  0.5984076515588397  0.1593554268567097
  0.6578928537584298  0.3843332633531393  0.1593497997915390
  0.6617653000006365  0.6006759520005497  0.1593697980990504
  0.5524353600756340  0.4920365535110620  0.1593863030002385
 
  0.00000000E+00  0.00000000E+00  0.00000000E+00
  0.00000000E+00  0.00000000E+00  0.00000000E+00
  0.00000000E+00  0.00000000E+00  0.00000000E+00
  0.00000000E+00  0.00000000E+00  0.00000000E+00
  0.00000000E+00  0.00000000E+00  0.00000000E+00
  0.00000000E+00  0.00000000E+00  0.00000000E+00
  0.00000000E+00  0.00000000E+00  0.00000000E+00
  0.00000000E+00  0.00000000E+00  0.00000000E+00
  0.00000000E+00  0.00000000E+00  0.00000000E+00
  0.00000000E+00  0.00000000E+00  0.00000000E+00
  0.00000000E+00  0.00000000E+00  0.00000000E+00
  0.00000000E+00  0.00000000E+00  0.00000000E+00
  0.00000000E+00  0.00000000E+00  0.00000000E+00
  0.00000000E+00  0.00000000E+00  0.00000000E+00
  0.00000000E+00  0.00000000E+00  0.00000000E+00
  0.00000000E+00  0.00000000E+00  0.00000000E+00
  0.00000000E+00  0.00000000E+00  0.00000000E+00
  0.00000000E+00  0.00000000E+00  0.00000000E+00
  0.00000000E+00  0.00000000E+00  0.00000000E+00
  0.00000000E+00  0.00000000E+00  0.00000000E+00
  0.00000000E+00  0.00000000E+00  0.00000000E+00
  0.00000000E+00  0.00000000E+00  0.00000000E+00
  0.00000000E+00  0.00000000E+00  0.00000000E+00
  0.00000000E+00  0.00000000E+00  0.00000000E+00
  0.00000000E+00  0.00000000E+00  0.00000000E+00
  0.00000000E+00  0.00000000E+00  0.00000000E+00
  0.00000000E+00  0.00000000E+00  0.00000000E+00
  0.00000000E+00  0.00000000E+00  0.00000000E+00
  0.00000000E+00  0.00000000E+00  0.00000000E+00
  0.00000000E+00  0.00000000E+00  0.00000000E+00
  0.00000000E+00  0.00000000E+00  0.00000000E+00
  0.00000000E+00  0.00000000E+00  0.00000000E+00
  0.00000000E+00  0.00000000E+00  0.00000000E+00
  0.00000000E+00  0.00000000E+00  0.00000000E+00
  0.00000000E+00  0.00000000E+00  0.00000000E+00
  0.00000000E+00  0.00000000E+00  0.00000000E+00
  0.00000000E+00  0.00000000E+00  0.00000000E+00
  0.00000000E+00  0.00000000E+00  0.00000000E+00
  0.00000000E+00  0.00000000E+00  0.00000000E+00
  0.00000000E+00  0.00000000E+00  0.00000000E+00
  0.00000000E+00  0.00000000E+00  0.00000000E+00
  0.00000000E+00  0.00000000E+00  0.00000000E+00
  0.00000000E+00  0.00000000E+00  0.00000000E+00
  0.00000000E+00  0.00000000E+00  0.00000000E+00
  0.00000000E+00  0.00000000E+00  0.00000000E+00
  0.00000000E+00  0.00000000E+00  0.00000000E+00
  0.00000000E+00  0.00000000E+00  0.00000000E+00
  0.00000000E+00  0.00000000E+00  0.00000000E+00
  0.00000000E+00  0.00000000E+00  0.00000000E+00
  0.00000000E+00  0.00000000E+00  0.00000000E+00
  0.00000000E+00  0.00000000E+00  0.00000000E+00
  0.00000000E+00  0.00000000E+00  0.00000000E+00
  0.00000000E+00  0.00000000E+00  0.00000000E+00
  0.00000000E+00  0.00000000E+00  0.00000000E+00
  0.00000000E+00  0.00000000E+00  0.00000000E+00
  0.00000000E+00  0.00000000E+00  0.00000000E+00
  0.00000000E+00  0.00000000E+00  0.00000000E+00
  0.00000000E+00  0.00000000E+00  0.00000000E+00
  0.00000000E+00  0.00000000E+00  0.00000000E+00
