 C  N Mn                                
   1.00000000000000     
     8.3999626849250610    0.0000094283269489    0.0000062264066271
     0.0000093788118222    8.3992135899771174    0.0000024489218349
     0.0000095290428823    0.0000048907844895   17.2672869809973868
   C    N    Mn
    20     4     1
Direct
  0.5000125205667332  0.0863306483391519  0.1542128493191299
  0.3533382895847001  0.1674899058272052  0.1542196683354472
  0.6466909478399508  0.1674912927876548  0.1542108991924950
  0.7959412328452232  0.9153199302364806  0.1542326124725227
  0.7959406396624115  0.0846256878255369  0.1542309581934806
  0.9153539740627390  0.2040660018762120  0.1542294153094111
  0.8325508629646925  0.3532609728123914  0.1542055293800401
  0.2040867505629020  0.0846250902593790  0.1542394092773328
  0.0846733112301052  0.2040644389336687  0.1542343990016934
  0.1674754778411389  0.3532653523686769  0.1542123291091583
  0.0864556886445627  0.4999688503540735  0.1542012963020285
  0.1674770939919867  0.6466839607958800  0.1542080666549615
  0.3533370864148564  0.8324537793495179  0.1542194902005479
  0.2040873083591035  0.9153192516517159  0.1542370274651891
  0.0846740587264085  0.7958790388358243  0.1542287657120307
  0.6466896599451005  0.8324551916562422  0.1542169448400307
  0.8325524430376287  0.6466796140221135  0.1542075071513264
  0.9153546686723284  0.7958805531444217  0.1542278332934708
  0.5000154085736056  0.9136144416560997  0.1542153875145378
  0.9135722607961857  0.4999762794241999  0.1541994735293941
  0.6678067650463408  0.3321514787945065  0.1541980594491770
  0.3322212151174733  0.3321508309332121  0.1542076267688030
  0.3322212386047899  0.6677935658415556  0.1542060925113780
  0.6678066723096350  0.6677942493279437  0.1542055623750834
  0.5000139845305099  0.4999725105345071  0.1542058064621248
 
  0.00000000E+00  0.00000000E+00  0.00000000E+00
  0.00000000E+00  0.00000000E+00  0.00000000E+00
  0.00000000E+00  0.00000000E+00  0.00000000E+00
  0.00000000E+00  0.00000000E+00  0.00000000E+00
  0.00000000E+00  0.00000000E+00  0.00000000E+00
  0.00000000E+00  0.00000000E+00  0.00000000E+00
  0.00000000E+00  0.00000000E+00  0.00000000E+00
  0.00000000E+00  0.00000000E+00  0.00000000E+00
  0.00000000E+00  0.00000000E+00  0.00000000E+00
  0.00000000E+00  0.00000000E+00  0.00000000E+00
  0.00000000E+00  0.00000000E+00  0.00000000E+00
  0.00000000E+00  0.00000000E+00  0.00000000E+00
  0.00000000E+00  0.00000000E+00  0.00000000E+00
  0.00000000E+00  0.00000000E+00  0.00000000E+00
  0.00000000E+00  0.00000000E+00  0.00000000E+00
  0.00000000E+00  0.00000000E+00  0.00000000E+00
  0.00000000E+00  0.00000000E+00  0.00000000E+00
  0.00000000E+00  0.00000000E+00  0.00000000E+00
  0.00000000E+00  0.00000000E+00  0.00000000E+00
  0.00000000E+00  0.00000000E+00  0.00000000E+00
  0.00000000E+00  0.00000000E+00  0.00000000E+00
  0.00000000E+00  0.00000000E+00  0.00000000E+00
  0.00000000E+00  0.00000000E+00  0.00000000E+00
  0.00000000E+00  0.00000000E+00  0.00000000E+00
  0.00000000E+00  0.00000000E+00  0.00000000E+00
