 C  N Cu                                
   1.00000000000000     
     8.4297225483983080    0.0000000000000001    0.0000000000000000
    -0.0000000000000001    8.4298079460034341    0.0000000000000000
    -0.0000000000000002    0.0000000000000000   19.8713392818999957
   C    N    Cu
    22     2     1
Direct
  0.5003462014754217  0.0850056798483907  0.1542622669360770
  0.3558580434739992  0.1670175039196020  0.1542496026532964
  0.6464877667712975  0.1673091481032323  0.1542320263473639
  0.7947354391457980  0.9168128827934331  0.1541559769489650
  0.7953711266737243  0.0827725191198007  0.1541599425280862
  0.9171925812192857  0.2045535297460035  0.1541495085282982
  0.8327642151595163  0.3534752640849562  0.1542077786682457
  0.2051482517553232  0.0831351620662439  0.1541707909304318
  0.0831347774823630  0.2051946440711183  0.1541554051574711
  0.1671970371389571  0.3558428540094801  0.1542291199692723
  0.0851552870017519  0.5003201161895826  0.1542256484366329
  0.1673346961036347  0.6465360572143914  0.1542220638690059
  0.3534597283671626  0.8327397113409705  0.1542486732238449
  0.2045158447141349  0.9171917264624840  0.1541740309121007
  0.0827766776421389  0.7954071502086728  0.1541530041700212
  0.6440826980163065  0.8328008765715984  0.1542358980033799
  0.8329661753344305  0.6440824588057256  0.1541971927975969
  0.9168159093046504  0.7947823290794017  0.1541382802601970
  0.4996610433186778  0.9148909743363524  0.1542634319924314
  0.9150722544430896  0.4996396606149807  0.1542090249765411
  0.6661344752900630  0.6659593589637506  0.1542745822665243
  0.3339951159665866  0.3338350412901650  0.1542997247162630
  0.6691377717257205  0.3309424972763277  0.1542387517084446
  0.3309369331837684  0.6691327199073601  0.1542622506586043
  0.5000695102924532  0.4999330512184250  0.1542980331616979
 
  0.00000000E+00  0.00000000E+00  0.00000000E+00
  0.00000000E+00  0.00000000E+00  0.00000000E+00
  0.00000000E+00  0.00000000E+00  0.00000000E+00
  0.00000000E+00  0.00000000E+00  0.00000000E+00
  0.00000000E+00  0.00000000E+00  0.00000000E+00
  0.00000000E+00  0.00000000E+00  0.00000000E+00
  0.00000000E+00  0.00000000E+00  0.00000000E+00
  0.00000000E+00  0.00000000E+00  0.00000000E+00
  0.00000000E+00  0.00000000E+00  0.00000000E+00
  0.00000000E+00  0.00000000E+00  0.00000000E+00
  0.00000000E+00  0.00000000E+00  0.00000000E+00
  0.00000000E+00  0.00000000E+00  0.00000000E+00
  0.00000000E+00  0.00000000E+00  0.00000000E+00
  0.00000000E+00  0.00000000E+00  0.00000000E+00
  0.00000000E+00  0.00000000E+00  0.00000000E+00
  0.00000000E+00  0.00000000E+00  0.00000000E+00
  0.00000000E+00  0.00000000E+00  0.00000000E+00
  0.00000000E+00  0.00000000E+00  0.00000000E+00
  0.00000000E+00  0.00000000E+00  0.00000000E+00
  0.00000000E+00  0.00000000E+00  0.00000000E+00
  0.00000000E+00  0.00000000E+00  0.00000000E+00
  0.00000000E+00  0.00000000E+00  0.00000000E+00
  0.00000000E+00  0.00000000E+00  0.00000000E+00
  0.00000000E+00  0.00000000E+00  0.00000000E+00
  0.00000000E+00  0.00000000E+00  0.00000000E+00
