 C  N Co                                
   1.00000000000000     
     8.3585389612466283    0.0000142066559264    0.0000118009611744
     0.0000142885781710    8.3583153320822330    0.0000018937373243
     0.0000307535026369    0.0000060856356040   18.0993424058490788
   C    N    Co
    20     4     1
Direct
  0.5000077401362730  0.0867736379877784  0.1542714976121050
  0.3542704373297994  0.1693050877451647  0.1542484504063817
  0.6457544908201789  0.1693124010081828  0.1542268329252321
  0.7954530684333792  0.9151575438169922  0.1541340077921416
  0.7954458252080275  0.0847953919506139  0.1541339932547442
  0.9151368624745803  0.2045431002287797  0.1541325848139756
  0.8306786484425900  0.3542458951277676  0.1542164894688079
  0.2045749078058670  0.0847874719511761  0.1541590758297263
  0.0848827164362389  0.2045357067992197  0.1541441793021154
  0.1693416045285019  0.3542441315060531  0.1542309789944596
  0.0868628143114191  0.4999657615933110  0.1542512716216574
  0.1693492260788373  0.6456990941149211  0.1542328938920877
  0.3542735265061026  0.8306327017769634  0.1542527591673392
  0.2045820773946059  0.9151495481619526  0.1541600388514298
  0.0848912273360540  0.7954020028587140  0.1541437003954834
  0.6457575025691491  0.8306399539889548  0.1542294975100232
  0.8306864038474178  0.6457008703398873  0.1542166422805533
  0.9151451991132582  0.7954093597846934  0.1541310986349119
  0.5000201898451538  0.9131713220710382  0.1542741040981361
  0.9131651791913952  0.4999793678470875  0.1542435128434702
  0.6651589975987119  0.3348300188677224  0.1542592094318825
  0.3348619662803927  0.3348230798179960  0.1542777663932738
  0.3348689350940771  0.6651150243957721  0.1542831425747195
  0.6651660325014108  0.6651219193926983  0.1542620188219180
  0.5000139806476891  0.4999725244547297  0.1542972629042181
 
  0.00000000E+00  0.00000000E+00  0.00000000E+00
  0.00000000E+00  0.00000000E+00  0.00000000E+00
  0.00000000E+00  0.00000000E+00  0.00000000E+00
  0.00000000E+00  0.00000000E+00  0.00000000E+00
  0.00000000E+00  0.00000000E+00  0.00000000E+00
  0.00000000E+00  0.00000000E+00  0.00000000E+00
  0.00000000E+00  0.00000000E+00  0.00000000E+00
  0.00000000E+00  0.00000000E+00  0.00000000E+00
  0.00000000E+00  0.00000000E+00  0.00000000E+00
  0.00000000E+00  0.00000000E+00  0.00000000E+00
  0.00000000E+00  0.00000000E+00  0.00000000E+00
  0.00000000E+00  0.00000000E+00  0.00000000E+00
  0.00000000E+00  0.00000000E+00  0.00000000E+00
  0.00000000E+00  0.00000000E+00  0.00000000E+00
  0.00000000E+00  0.00000000E+00  0.00000000E+00
  0.00000000E+00  0.00000000E+00  0.00000000E+00
  0.00000000E+00  0.00000000E+00  0.00000000E+00
  0.00000000E+00  0.00000000E+00  0.00000000E+00
  0.00000000E+00  0.00000000E+00  0.00000000E+00
  0.00000000E+00  0.00000000E+00  0.00000000E+00
  0.00000000E+00  0.00000000E+00  0.00000000E+00
  0.00000000E+00  0.00000000E+00  0.00000000E+00
  0.00000000E+00  0.00000000E+00  0.00000000E+00
  0.00000000E+00  0.00000000E+00  0.00000000E+00
  0.00000000E+00  0.00000000E+00  0.00000000E+00
