 C  N Cu                                
   1.00000000000000     
    12.4843218152065418    0.0000000000000000    0.0000000000000000
    -0.0000000000000004   12.7828397165856202    0.0000000000000000
     0.0000000000000003    0.0000000000000000   19.8713392819153718
   C    N    Cu
    56     2     1
Direct
  0.0520675403413769  0.0474347969738042  0.1594028835247870
  0.1524302083888067  0.1020995012945140  0.1593793990871692
  0.1517782439941491  0.2132426135417786  0.1592947796918222
  0.0522225815565864  0.2684999686347531  0.1592413871905869
  0.2532536111364092  0.0477804498183764  0.1594152030614271
  0.3533942577193850  0.1038262333834673  0.1594329064579151
  0.3526709550219792  0.2162734648510907  0.1593611117656556
  0.2513396579988397  0.2688937783987849  0.1592880125894518
  0.4535520223838563  0.0483977500317400  0.1594636267956157
  0.5530062957144263  0.1066693903144969  0.1594476383144663
  0.5534231988648914  0.2197345741867467  0.1594249851131987
  0.4522781383225067  0.2758278530171771  0.1593795757825609
  0.6517941066509755  0.0482527842758393  0.1594594725449624
  0.7515452652265360  0.1035976676323827  0.1594117540904657
  0.7527251878490310  0.2160064530170596  0.1593722025621301
  0.6544904595395181  0.2755258484707224  0.1593926604845611
  0.8515111902770083  0.0477307582946200  0.1593993601479488
  0.9519723122857126  0.1022310286759270  0.1593723248849723
  0.9525300390830334  0.2135156595620600  0.1593009980512226
  0.8533658273013444  0.2692104783586157  0.1593038426151062
  0.0515808678198692  0.3803279391447530  0.1591950067409850
  0.1494108779302757  0.4360038348513780  0.1591859717036707
  0.1494181151461232  0.5477491885391329  0.1591965782571171
  0.0515811627590996  0.6034269716976389  0.1592098579356439
  0.2478355036485630  0.3797457135080821  0.1592304260442183
  0.3446131437052856  0.4359442525326853  0.1592793382820972
  0.3446028421324542  0.5478177699316886  0.1592925759748842
  0.2478392190245971  0.6040260372617274  0.1592481143818828
  0.7565093110550422  0.4353546958386475  0.1593060053733917
  0.7564932620821240  0.5483895644083732  0.1592971400599452
  0.8547667582837408  0.3807451022102725  0.1592594133536758
  0.9533424464228147  0.4363402183174344  0.1591810568440346
  0.9533398402516085  0.5474169826720489  0.1591807608416244
  0.8547571313165793  0.6029950398396138  0.1592504448994611
  0.0522181989819004  0.7152376345835580  0.1592548875823536
  0.1517767695789281  0.7705052984890028  0.1593066367135667
  0.0520709050691379  0.9363235308292609  0.1594085460096034
  0.2513228657235668  0.7148612012934977  0.1593181806543558
  0.3526616556803721  0.7674709840703580  0.1593827574431448
  0.3533922063478834  0.8799160501668093  0.1594252300870147
  0.2532536685501720  0.9359524850851186  0.1594136550299183
  0.4522692437507346  0.7079331882445457  0.1593916045487499
  0.5534327851342035  0.7640459228564930  0.1594339397345877
  0.5530294492809412  0.8770941602994216  0.1594573392339596
  0.4535705001092551  0.9353324702442416  0.1594595423212457
  0.6544880807724421  0.7082389155128161  0.1593846071295310
  0.7527356542877304  0.7677180159540660  0.1593772837873347
  0.7515748649054254  0.8801264625588346  0.1594304506806829
  0.6518245649819542  0.9354802849507508  0.1594600449739964
  0.8533788102039447  0.7145247292666290  0.1593117322878716
  0.9525163245304962  0.7702312877985970  0.1593017313131393
  0.8515248266602495  0.9359861111349764  0.1594128655273673
  0.1524231572752221  0.8816441767386075  0.1593751696637322
  0.9520008350622854  0.8815066369615382  0.1593687161495664
  0.4444066621782470  0.3863139957916176  0.1593456703125157
  0.4443990696549150  0.5974622877626495  0.1593626739824197
  0.6598540466763589  0.3837579583800404  0.1593761006993148
  0.6598437146445885  0.6000003453676911  0.1593707834800951
  0.5527696487139721  0.4918814982883609  0.1593930946771935
 
  0.00000000E+00  0.00000000E+00  0.00000000E+00
  0.00000000E+00  0.00000000E+00  0.00000000E+00
  0.00000000E+00  0.00000000E+00  0.00000000E+00
  0.00000000E+00  0.00000000E+00  0.00000000E+00
  0.00000000E+00  0.00000000E+00  0.00000000E+00
  0.00000000E+00  0.00000000E+00  0.00000000E+00
  0.00000000E+00  0.00000000E+00  0.00000000E+00
  0.00000000E+00  0.00000000E+00  0.00000000E+00
  0.00000000E+00  0.00000000E+00  0.00000000E+00
  0.00000000E+00  0.00000000E+00  0.00000000E+00
  0.00000000E+00  0.00000000E+00  0.00000000E+00
  0.00000000E+00  0.00000000E+00  0.00000000E+00
  0.00000000E+00  0.00000000E+00  0.00000000E+00
  0.00000000E+00  0.00000000E+00  0.00000000E+00
  0.00000000E+00  0.00000000E+00  0.00000000E+00
  0.00000000E+00  0.00000000E+00  0.00000000E+00
  0.00000000E+00  0.00000000E+00  0.00000000E+00
  0.00000000E+00  0.00000000E+00  0.00000000E+00
  0.00000000E+00  0.00000000E+00  0.00000000E+00
  0.00000000E+00  0.00000000E+00  0.00000000E+00
  0.00000000E+00  0.00000000E+00  0.00000000E+00
  0.00000000E+00  0.00000000E+00  0.00000000E+00
  0.00000000E+00  0.00000000E+00  0.00000000E+00
  0.00000000E+00  0.00000000E+00  0.00000000E+00
  0.00000000E+00  0.00000000E+00  0.00000000E+00
  0.00000000E+00  0.00000000E+00  0.00000000E+00
  0.00000000E+00  0.00000000E+00  0.00000000E+00
  0.00000000E+00  0.00000000E+00  0.00000000E+00
  0.00000000E+00  0.00000000E+00  0.00000000E+00
  0.00000000E+00  0.00000000E+00  0.00000000E+00
  0.00000000E+00  0.00000000E+00  0.00000000E+00
  0.00000000E+00  0.00000000E+00  0.00000000E+00
  0.00000000E+00  0.00000000E+00  0.00000000E+00
  0.00000000E+00  0.00000000E+00  0.00000000E+00
  0.00000000E+00  0.00000000E+00  0.00000000E+00
  0.00000000E+00  0.00000000E+00  0.00000000E+00
  0.00000000E+00  0.00000000E+00  0.00000000E+00
  0.00000000E+00  0.00000000E+00  0.00000000E+00
  0.00000000E+00  0.00000000E+00  0.00000000E+00
  0.00000000E+00  0.00000000E+00  0.00000000E+00
  0.00000000E+00  0.00000000E+00  0.00000000E+00
  0.00000000E+00  0.00000000E+00  0.00000000E+00
  0.00000000E+00  0.00000000E+00  0.00000000E+00
  0.00000000E+00  0.00000000E+00  0.00000000E+00
  0.00000000E+00  0.00000000E+00  0.00000000E+00
  0.00000000E+00  0.00000000E+00  0.00000000E+00
  0.00000000E+00  0.00000000E+00  0.00000000E+00
  0.00000000E+00  0.00000000E+00  0.00000000E+00
  0.00000000E+00  0.00000000E+00  0.00000000E+00
  0.00000000E+00  0.00000000E+00  0.00000000E+00
  0.00000000E+00  0.00000000E+00  0.00000000E+00
  0.00000000E+00  0.00000000E+00  0.00000000E+00
  0.00000000E+00  0.00000000E+00  0.00000000E+00
  0.00000000E+00  0.00000000E+00  0.00000000E+00
  0.00000000E+00  0.00000000E+00  0.00000000E+00
  0.00000000E+00  0.00000000E+00  0.00000000E+00
  0.00000000E+00  0.00000000E+00  0.00000000E+00
  0.00000000E+00  0.00000000E+00  0.00000000E+00
  0.00000000E+00  0.00000000E+00  0.00000000E+00
