 C  N  H Cu                             
   1.00000000000000     
    26.3775855907618322    0.0000000000000000    0.0000000000000000
     0.0000000000000000   26.3876851127169587    0.0000000000000000
     0.0000000000000000    0.0000000000000000   25.0000000000000000
   C    N    H    Cu
    60     8    32     1
Direct
  0.2518641611235019  0.1968711635174705  0.2006150946896670
  0.2032958131670866  0.1710571228056800  0.1993549836603127
  0.1666526221615560  0.2076986059012266  0.1993574517455855
  0.1925061656157653  0.2562319981671229  0.2006283287117160
  0.3467582001000562  0.1968675927951933  0.1993887486269153
  0.3953385840608350  0.1710718941757543  0.2006119673699809
  0.4061166722412557  0.2562588206163388  0.1994036064725180
  0.4319722046996221  0.2077292411471912  0.2006251240715952
  0.2518502822729400  0.4105383655347993  0.1994193337199782
  0.1925172893685347  0.3511087135048511  0.1994225970272980
  0.2032531865443382  0.4362982497965827  0.2006272777247381
  0.1666382174250260  0.3996223593829880  0.2006384890720019
  0.4060775185697666  0.3511319402508430  0.2006116280721464
  0.4319430507827444  0.3996498444346505  0.1993657163088871
  0.3467337857022795  0.4105450364090056  0.2006233801836098
  0.3953260818593377  0.4363182914842381  0.1993690291495463
  0.2992935661273288  0.4355235821622667  0.2000403104485801
  0.1675846107502342  0.3036659435326609  0.2000413078203542
  0.2993055005641456  0.1719263224055358  0.2000073550011322
  0.2992575421415778  0.1151201658496711  0.1999826536834247
  0.3194788959276421  0.0874860285768463  0.1564807691277946
  0.2789252954578322  0.0874536860625718  0.2434067223363577
  0.3197883697097236  0.0345958284530681  0.1561118488950342
  0.2787133739428587  0.0345593108817755  0.2437621755066147
  0.2993444852814579  0.0074131854167602  0.1999735772121281
  0.4310387441196217  0.3037071181061090  0.2000090825882712
  0.2993317802094348  0.4923644783545853  0.2000318198798425
  0.4878807021049933  0.3037463062295619  0.2000004501370666
  0.1107626790644527  0.3036338426209745  0.2000076079980353
  0.2791133355707320  0.5200375640417324  0.1565439238711300
  0.5155358338048710  0.2835437338368413  0.1564970000918405
  0.0831551220820306  0.3238658370218362  0.1564946757383940
  0.3196491447830595  0.5200540805776155  0.2434627667924101
  0.5155418107711357  0.3240181785518108  0.2434679781247944
  0.0830741295743809  0.2833407480998664  0.2434354143033708
  0.2788808353360456  0.5729360907366020  0.1561538484594873
  0.5684496162039174  0.2832829014444917  0.1561387998964926
  0.0302410573678155  0.3242079279814918  0.1561133118507441
  0.3199228122337586  0.5729535419243312  0.2438051218524042
  0.5684576326938460  0.3242533842616541  0.2438420510770070
  0.0301593466488998  0.2831718649495217  0.2437771439315676
  0.2993797154922165  0.6001159478595561  0.1999839480637802
  0.5956097378347771  0.3037211590497781  0.2000112088838077
  0.0030226523620449  0.3037708829117171  0.1999586964477611
  0.6930383027250657  0.3035854436972023  0.2000362185260787
  0.9055744176283592  0.3037921042244633  0.1999940261779014
  0.2992838289694801  0.6975293550092698  0.2000280901181822
  0.2994874331904502  0.9099998332181769  0.2000367431270866
  0.7445599407628077  0.3035919771135046  0.1999878680121765
  0.7734717428184053  0.2563505702301955  0.1997655464519071
  0.7733644365524532  0.3509001472139391  0.2001879053101647
  0.8252231665355853  0.2564149133537882  0.2002888433222141
  0.8251120991440803  0.3509554761705003  0.1996585838764164
  0.8540403130668687  0.3037217574662082  0.1999886300470407
  0.2993107784721459  0.7490425118216975  0.1999967563089104
  0.3466340432176912  0.7778577412082430  0.2002098565566002
  0.2520553497009933  0.7779661355569959  0.1997361417772188
  0.3466953358275630  0.8295745199949193  0.1996666180553274
  0.2521182550521607  0.8296839819417787  0.2002743154802610
  0.2994445406024613  0.8584986589441650  0.1999955972713602
  0.2444331810655300  0.2487847531293284  0.2011227421570637
  0.2444458964186292  0.3586036228860506  0.1989298918829042
  0.3541842800495889  0.2487912782836610  0.1989085994348521
  0.3541458693470533  0.3586130240893389  0.2011105020785605
  0.6474929288191443  0.3036758482663211  0.2000009588988044
  0.9511269911203700  0.3038428780148606  0.1999591487445519
  0.2993585033783915  0.6519991525804908  0.1999499006118589
  0.2994542153440393  0.9555455384105281  0.2000001516281897
  0.1978823407942678  0.1302998257326282  0.1981803405374571
  0.1258765438060429  0.2022915045363672  0.1981861631098094
  0.4007819033738783  0.1303149635692196  0.2017368087974341
  0.4727536299617255  0.2023593508211276  0.2017503399033965
  0.1978181214592956  0.4770540566103626  0.2017356116342255
  0.1258495937048650  0.4049416855333576  0.2017563212154863
  0.4727246498114570  0.4049999013240680  0.1982066045750366
  0.4007977059024415  0.4770689677632360  0.1982113104202923
  0.3344088119718973  0.1080929368969967  0.1220123466876236
  0.2637941812429616  0.1080207070496629  0.2778071136923876
  0.3350119986218498  0.0137244584172707  0.1219987438874275
  0.2634262859058601  0.0136516569828043  0.2778170151683309
  0.2641589036776558  0.4994719095970098  0.1220588146285348
  0.4949337293806582  0.2685958727787005  0.1220282871145321
  0.1038145331556995  0.3387642490358626  0.1220396803591478
  0.3347627927925648  0.4995082548719184  0.2778844975210118
  0.4949479988402233  0.3391070859888821  0.2778729476885290
  0.1036485245656941  0.2681920823433332  0.2778260119918244
  0.2637115822192200  0.5938383721387167  0.1220307405415012
  0.5893904043276416  0.2681412780999360  0.1220290451401603
  0.0093611336147033  0.3394296986412935  0.1220038209169184
  0.3351993454509157  0.5938671483460174  0.2778664119588977
  0.5894032430450770  0.3395015834460637  0.2778981127336118
  0.0092095813454693  0.2679461418927886  0.2778351318451088
  0.7529735240189855  0.2203784558811549  0.1997092423570538
  0.7527890340927045  0.3868271113952917  0.2001839668372695
  0.8458069496350216  0.2204963302354868  0.2003664287741907
  0.8456197598848224  0.3869152535418521  0.1995225690412804
  0.3825865056593359  0.7573017820237696  0.2002365677537678
  0.2160673385691066  0.7574735267077147  0.1996283891136895
  0.3826918642135029  0.8500528475656757  0.1995470424887830
  0.2161723915750870  0.8502495164036645  0.2003141668277623
  0.2993080929941553  0.3036963805135923  0.2000160174559125
 
  0.00000000E+00  0.00000000E+00  0.00000000E+00
  0.00000000E+00  0.00000000E+00  0.00000000E+00
  0.00000000E+00  0.00000000E+00  0.00000000E+00
  0.00000000E+00  0.00000000E+00  0.00000000E+00
  0.00000000E+00  0.00000000E+00  0.00000000E+00
  0.00000000E+00  0.00000000E+00  0.00000000E+00
  0.00000000E+00  0.00000000E+00  0.00000000E+00
  0.00000000E+00  0.00000000E+00  0.00000000E+00
  0.00000000E+00  0.00000000E+00  0.00000000E+00
  0.00000000E+00  0.00000000E+00  0.00000000E+00
  0.00000000E+00  0.00000000E+00  0.00000000E+00
  0.00000000E+00  0.00000000E+00  0.00000000E+00
  0.00000000E+00  0.00000000E+00  0.00000000E+00
  0.00000000E+00  0.00000000E+00  0.00000000E+00
  0.00000000E+00  0.00000000E+00  0.00000000E+00
  0.00000000E+00  0.00000000E+00  0.00000000E+00
  0.00000000E+00  0.00000000E+00  0.00000000E+00
  0.00000000E+00  0.00000000E+00  0.00000000E+00
  0.00000000E+00  0.00000000E+00  0.00000000E+00
  0.00000000E+00  0.00000000E+00  0.00000000E+00
  0.00000000E+00  0.00000000E+00  0.00000000E+00
  0.00000000E+00  0.00000000E+00  0.00000000E+00
  0.00000000E+00  0.00000000E+00  0.00000000E+00
  0.00000000E+00  0.00000000E+00  0.00000000E+00
  0.00000000E+00  0.00000000E+00  0.00000000E+00
  0.00000000E+00  0.00000000E+00  0.00000000E+00
  0.00000000E+00  0.00000000E+00  0.00000000E+00
  0.00000000E+00  0.00000000E+00  0.00000000E+00
  0.00000000E+00  0.00000000E+00  0.00000000E+00
  0.00000000E+00  0.00000000E+00  0.00000000E+00
  0.00000000E+00  0.00000000E+00  0.00000000E+00
  0.00000000E+00  0.00000000E+00  0.00000000E+00
  0.00000000E+00  0.00000000E+00  0.00000000E+00
  0.00000000E+00  0.00000000E+00  0.00000000E+00
  0.00000000E+00  0.00000000E+00  0.00000000E+00
  0.00000000E+00  0.00000000E+00  0.00000000E+00
  0.00000000E+00  0.00000000E+00  0.00000000E+00
  0.00000000E+00  0.00000000E+00  0.00000000E+00
  0.00000000E+00  0.00000000E+00  0.00000000E+00
  0.00000000E+00  0.00000000E+00  0.00000000E+00
  0.00000000E+00  0.00000000E+00  0.00000000E+00
  0.00000000E+00  0.00000000E+00  0.00000000E+00
  0.00000000E+00  0.00000000E+00  0.00000000E+00
  0.00000000E+00  0.00000000E+00  0.00000000E+00
  0.00000000E+00  0.00000000E+00  0.00000000E+00
  0.00000000E+00  0.00000000E+00  0.00000000E+00
  0.00000000E+00  0.00000000E+00  0.00000000E+00
  0.00000000E+00  0.00000000E+00  0.00000000E+00
  0.00000000E+00  0.00000000E+00  0.00000000E+00
  0.00000000E+00  0.00000000E+00  0.00000000E+00
  0.00000000E+00  0.00000000E+00  0.00000000E+00
  0.00000000E+00  0.00000000E+00  0.00000000E+00
  0.00000000E+00  0.00000000E+00  0.00000000E+00
  0.00000000E+00  0.00000000E+00  0.00000000E+00
  0.00000000E+00  0.00000000E+00  0.00000000E+00
  0.00000000E+00  0.00000000E+00  0.00000000E+00
  0.00000000E+00  0.00000000E+00  0.00000000E+00
  0.00000000E+00  0.00000000E+00  0.00000000E+00
  0.00000000E+00  0.00000000E+00  0.00000000E+00
  0.00000000E+00  0.00000000E+00  0.00000000E+00
  0.00000000E+00  0.00000000E+00  0.00000000E+00
  0.00000000E+00  0.00000000E+00  0.00000000E+00
  0.00000000E+00  0.00000000E+00  0.00000000E+00
  0.00000000E+00  0.00000000E+00  0.00000000E+00
  0.00000000E+00  0.00000000E+00  0.00000000E+00
  0.00000000E+00  0.00000000E+00  0.00000000E+00
  0.00000000E+00  0.00000000E+00  0.00000000E+00
  0.00000000E+00  0.00000000E+00  0.00000000E+00
  0.00000000E+00  0.00000000E+00  0.00000000E+00
  0.00000000E+00  0.00000000E+00  0.00000000E+00
  0.00000000E+00  0.00000000E+00  0.00000000E+00
  0.00000000E+00  0.00000000E+00  0.00000000E+00
  0.00000000E+00  0.00000000E+00  0.00000000E+00
  0.00000000E+00  0.00000000E+00  0.00000000E+00
  0.00000000E+00  0.00000000E+00  0.00000000E+00
  0.00000000E+00  0.00000000E+00  0.00000000E+00
  0.00000000E+00  0.00000000E+00  0.00000000E+00
  0.00000000E+00  0.00000000E+00  0.00000000E+00
  0.00000000E+00  0.00000000E+00  0.00000000E+00
  0.00000000E+00  0.00000000E+00  0.00000000E+00
  0.00000000E+00  0.00000000E+00  0.00000000E+00
  0.00000000E+00  0.00000000E+00  0.00000000E+00
  0.00000000E+00  0.00000000E+00  0.00000000E+00
  0.00000000E+00  0.00000000E+00  0.00000000E+00
  0.00000000E+00  0.00000000E+00  0.00000000E+00
  0.00000000E+00  0.00000000E+00  0.00000000E+00
  0.00000000E+00  0.00000000E+00  0.00000000E+00
  0.00000000E+00  0.00000000E+00  0.00000000E+00
  0.00000000E+00  0.00000000E+00  0.00000000E+00
  0.00000000E+00  0.00000000E+00  0.00000000E+00
  0.00000000E+00  0.00000000E+00  0.00000000E+00
  0.00000000E+00  0.00000000E+00  0.00000000E+00
  0.00000000E+00  0.00000000E+00  0.00000000E+00
  0.00000000E+00  0.00000000E+00  0.00000000E+00
  0.00000000E+00  0.00000000E+00  0.00000000E+00
  0.00000000E+00  0.00000000E+00  0.00000000E+00
  0.00000000E+00  0.00000000E+00  0.00000000E+00
  0.00000000E+00  0.00000000E+00  0.00000000E+00
  0.00000000E+00  0.00000000E+00  0.00000000E+00
  0.00000000E+00  0.00000000E+00  0.00000000E+00
  0.00000000E+00  0.00000000E+00  0.00000000E+00
