 C  N Fe                                
   1.00000000000000     
    12.4907659067986554    0.0000000000000000    0.0000000000000000
    -0.0000000000000004   12.7633829265286778    0.0000000000000000
     0.0000000000000003    0.0000000000000000   19.8713392819153718
   C    N    Fe
    55     3     1
Direct
  0.0522251009644623  0.0477412838136412  0.1593996942969116
  0.1525681837415558  0.1023779238872787  0.1593807165765770
  0.1521763627441317  0.2138013438881962  0.1593052756084609
  0.0522758356295000  0.2687115744515676  0.1592494718076673
  0.2531669113229772  0.0476985918886189  0.1594290957481531
  0.3532714725555223  0.1035187131247183  0.1594341783134216
  0.3527164854991165  0.2160699590214637  0.1592837189042062
  0.2514702008964382  0.2694846536649708  0.1592906782419722
  0.4534363550953925  0.0481542748228410  0.1594700960506416
  0.5528837679736042  0.1064622086175042  0.1594596722834614
  0.5527890643115720  0.2198038843739165  0.1593645556340747
  0.4514103373710084  0.2750977640339899  0.1591624474991355
  0.6515078481889413  0.0478091216763421  0.1594724570320873
  0.7512715825064313  0.1035887226302451  0.1594171447867434
  0.7522236015192708  0.2163165184542402  0.1593465696122940
  0.6543201187370320  0.2760566683719574  0.1593125413526993
  0.8513879381874101  0.0479164205391173  0.1593999538864077
  0.9519714700646812  0.1023823152504459  0.1593647806275520
  0.9525342074010561  0.2136706977118569  0.1592939161247328
  0.8533359440262477  0.2691770494462072  0.1593166452989601
  0.0517103708482662  0.3803513663541917  0.1592264607231835
  0.1497066626120802  0.4362906965297598  0.1592423317918591
  0.1497911945410958  0.5476148640573333  0.1591965054831181
  0.0519518375233598  0.6035000340020096  0.1592170129492744
  0.2485716286450866  0.3809538448739240  0.1592917939276610
  0.3456751853162405  0.4370150495065262  0.1591055059393900
  0.3451378716741290  0.5492349017737213  0.1592267270956395
  0.2482149419309116  0.6041855551718827  0.1592105950135187
  0.7571560274018007  0.4354872944534697  0.1592847852859184
  0.7577309495251277  0.5484888704756740  0.1592008679259841
  0.8547718218587375  0.3806128528144340  0.1593442568846526
  0.9536483708691845  0.4363044669020302  0.1592369777998006
  0.9539318830760758  0.5473690004343981  0.1591851126474459
  0.8554587973090526  0.6031428629813488  0.1591789605400659
  0.0520844614278840  0.7151917517905310  0.1592792780564382
  0.1516028371210157  0.7706425053449377  0.1593246641144008
  0.0521781980620395  0.9365721111226681  0.1594135690342276
  0.2506535253145417  0.7151682560545469  0.1592735128216884
  0.3521234463278299  0.7673626208137434  0.1592567053727315
  0.3532570969038288  0.8798499434460022  0.1593872176219567
  0.2531633027845619  0.9359095484251172  0.1594132611842381
  0.4498230803226322  0.7067363704839068  0.1592721590361411
  0.5522693088684618  0.7616846151675847  0.1594509148305709
  0.5522595149610298  0.8756864022879034  0.1595142670843334
  0.4534458025895696  0.9348054544369948  0.1594814653951628
  0.6550346027869345  0.7073157618391384  0.1592911810070066
  0.7526578750835523  0.7675906367111961  0.1592890994063463
  0.7514984904221106  0.8799533281911739  0.1594161961713281
  0.6513166438509862  0.9346411107156329  0.1594885657683159
  0.8535002066079481  0.7145632194451722  0.1592726415710686
  0.9525646692428913  0.7703372996163265  0.1593211308954444
  0.8514307052174470  0.9360589402515537  0.1594119162233908
  0.1523396119521117  0.8818073839643393  0.1593802149609464
  0.9520259280298079  0.8816675923620829  0.1593811932861129
  0.4469905667455660  0.3871808409343732  0.1588827881827399
  0.4435213950989248  0.5980814796648634  0.1594125923152832
  0.6588771604662615  0.3854121594671044  0.1591575640374874
  0.6609280893726784  0.5993324327160646  0.1593435650106221
  0.5522332385613612  0.4906368808641348  0.1609628923902655
 
  0.00000000E+00  0.00000000E+00  0.00000000E+00
  0.00000000E+00  0.00000000E+00  0.00000000E+00
  0.00000000E+00  0.00000000E+00  0.00000000E+00
  0.00000000E+00  0.00000000E+00  0.00000000E+00
  0.00000000E+00  0.00000000E+00  0.00000000E+00
  0.00000000E+00  0.00000000E+00  0.00000000E+00
  0.00000000E+00  0.00000000E+00  0.00000000E+00
  0.00000000E+00  0.00000000E+00  0.00000000E+00
  0.00000000E+00  0.00000000E+00  0.00000000E+00
  0.00000000E+00  0.00000000E+00  0.00000000E+00
  0.00000000E+00  0.00000000E+00  0.00000000E+00
  0.00000000E+00  0.00000000E+00  0.00000000E+00
  0.00000000E+00  0.00000000E+00  0.00000000E+00
  0.00000000E+00  0.00000000E+00  0.00000000E+00
  0.00000000E+00  0.00000000E+00  0.00000000E+00
  0.00000000E+00  0.00000000E+00  0.00000000E+00
  0.00000000E+00  0.00000000E+00  0.00000000E+00
  0.00000000E+00  0.00000000E+00  0.00000000E+00
  0.00000000E+00  0.00000000E+00  0.00000000E+00
  0.00000000E+00  0.00000000E+00  0.00000000E+00
  0.00000000E+00  0.00000000E+00  0.00000000E+00
  0.00000000E+00  0.00000000E+00  0.00000000E+00
  0.00000000E+00  0.00000000E+00  0.00000000E+00
  0.00000000E+00  0.00000000E+00  0.00000000E+00
  0.00000000E+00  0.00000000E+00  0.00000000E+00
  0.00000000E+00  0.00000000E+00  0.00000000E+00
  0.00000000E+00  0.00000000E+00  0.00000000E+00
  0.00000000E+00  0.00000000E+00  0.00000000E+00
  0.00000000E+00  0.00000000E+00  0.00000000E+00
  0.00000000E+00  0.00000000E+00  0.00000000E+00
  0.00000000E+00  0.00000000E+00  0.00000000E+00
  0.00000000E+00  0.00000000E+00  0.00000000E+00
  0.00000000E+00  0.00000000E+00  0.00000000E+00
  0.00000000E+00  0.00000000E+00  0.00000000E+00
  0.00000000E+00  0.00000000E+00  0.00000000E+00
  0.00000000E+00  0.00000000E+00  0.00000000E+00
  0.00000000E+00  0.00000000E+00  0.00000000E+00
  0.00000000E+00  0.00000000E+00  0.00000000E+00
  0.00000000E+00  0.00000000E+00  0.00000000E+00
  0.00000000E+00  0.00000000E+00  0.00000000E+00
  0.00000000E+00  0.00000000E+00  0.00000000E+00
  0.00000000E+00  0.00000000E+00  0.00000000E+00
  0.00000000E+00  0.00000000E+00  0.00000000E+00
  0.00000000E+00  0.00000000E+00  0.00000000E+00
  0.00000000E+00  0.00000000E+00  0.00000000E+00
  0.00000000E+00  0.00000000E+00  0.00000000E+00
  0.00000000E+00  0.00000000E+00  0.00000000E+00
  0.00000000E+00  0.00000000E+00  0.00000000E+00
  0.00000000E+00  0.00000000E+00  0.00000000E+00
  0.00000000E+00  0.00000000E+00  0.00000000E+00
  0.00000000E+00  0.00000000E+00  0.00000000E+00
  0.00000000E+00  0.00000000E+00  0.00000000E+00
  0.00000000E+00  0.00000000E+00  0.00000000E+00
  0.00000000E+00  0.00000000E+00  0.00000000E+00
  0.00000000E+00  0.00000000E+00  0.00000000E+00
  0.00000000E+00  0.00000000E+00  0.00000000E+00
  0.00000000E+00  0.00000000E+00  0.00000000E+00
  0.00000000E+00  0.00000000E+00  0.00000000E+00
  0.00000000E+00  0.00000000E+00  0.00000000E+00
