 C  N Cr                                
   1.00000000000000     
     8.4610536675889954    0.0021414846355338   -0.0001063775285773
     0.0020918541097720    8.4623743284502417    0.0000265083975390
    -0.0002495024975656    0.0000622619511959   19.8380297447697025
   C    N    Cr
    21     3     1
Direct
  0.4991924414196812  0.0834800767811825  0.1542866760702719
  0.3518123556589113  0.1649750839302224  0.1542753216509549
  0.6451351281898006  0.1652241033373291  0.1542371361981070
  0.7966279698082729  0.9164847636930320  0.1540204968676687
  0.7961410240986422  0.0830474310103217  0.1540251649713801
  0.9169446455590671  0.2038550638676958  0.1540192851888424
  0.8347174119667230  0.3548603274326435  0.1542158975166922
  0.2034883905865673  0.0837767020323971  0.1540514602605610
  0.0835102341913868  0.2033529067456720  0.1540302455760376
  0.1678978618042900  0.3524370995106662  0.1542356539628501
  0.0883858474006663  0.5009773379672791  0.1542610326189260
  0.1672259157251934  0.6483726103890508  0.1542517321100384
  0.3515835934906861  0.8327709247233001  0.1542651141850543
  0.2027379493664075  0.9162227794596407  0.1540550186501318
  0.0837660157298348  0.7972544857566356  0.1540393723152179
  0.6475579609062148  0.8321152927401956  0.1542226140979028
  0.8349845133429314  0.6481424648215128  0.1542231253069916
  0.9162115442543473  0.7964926345071001  0.1540192854003285
  0.4990152755081202  0.9116202106426458  0.1542785320018946
  0.9164862336211055  0.5008059733818853  0.1542464962063340
  0.6666401853915527  0.3333537677030736  0.1543870681364528
  0.3301552476459704  0.3288469704023486  0.1543964544577312
  0.3290649870372256  0.6709592930891971  0.1543972527362992
  0.6711313875262166  0.6698419242677583  0.1543553540743757
  0.4999354397012946  0.5000426893953990  0.1546172192597493
 
  0.00000000E+00  0.00000000E+00  0.00000000E+00
  0.00000000E+00  0.00000000E+00  0.00000000E+00
  0.00000000E+00  0.00000000E+00  0.00000000E+00
  0.00000000E+00  0.00000000E+00  0.00000000E+00
  0.00000000E+00  0.00000000E+00  0.00000000E+00
  0.00000000E+00  0.00000000E+00  0.00000000E+00
  0.00000000E+00  0.00000000E+00  0.00000000E+00
  0.00000000E+00  0.00000000E+00  0.00000000E+00
  0.00000000E+00  0.00000000E+00  0.00000000E+00
  0.00000000E+00  0.00000000E+00  0.00000000E+00
  0.00000000E+00  0.00000000E+00  0.00000000E+00
  0.00000000E+00  0.00000000E+00  0.00000000E+00
  0.00000000E+00  0.00000000E+00  0.00000000E+00
  0.00000000E+00  0.00000000E+00  0.00000000E+00
  0.00000000E+00  0.00000000E+00  0.00000000E+00
  0.00000000E+00  0.00000000E+00  0.00000000E+00
  0.00000000E+00  0.00000000E+00  0.00000000E+00
  0.00000000E+00  0.00000000E+00  0.00000000E+00
  0.00000000E+00  0.00000000E+00  0.00000000E+00
  0.00000000E+00  0.00000000E+00  0.00000000E+00
  0.00000000E+00  0.00000000E+00  0.00000000E+00
  0.00000000E+00  0.00000000E+00  0.00000000E+00
  0.00000000E+00  0.00000000E+00  0.00000000E+00
  0.00000000E+00  0.00000000E+00  0.00000000E+00
  0.00000000E+00  0.00000000E+00  0.00000000E+00
