 C  N Ti                                
   1.00000000000000     
     8.4941822389718489    0.0022613091314548   -0.0000881369400373
     0.0022234450992221    8.4943986318012588   -0.0000200670214325
    -0.0002060520072750   -0.0000448421842219   19.8362665680226371
   C    N    Ti
    21     3     1
Direct
  0.4991724068099828  0.0831314566128185  0.1542734016650797
  0.3512262836145794  0.1635452063334739  0.1542578021601315
  0.6460478819615219  0.1636699369180548  0.1542210683051337
  0.7965675811192838  0.9164116013428938  0.1539977571989724
  0.7964454179156206  0.0830577066198188  0.1539989638551447
  0.9169251550931037  0.2035594811437562  0.1539887688236803
  0.8362892239141075  0.3539318600761590  0.1541928950224190
  0.2034146441958455  0.0839709303426162  0.1540295600475048
  0.0835623591461996  0.2034303233739010  0.1540052759847583
  0.1660893942883206  0.3518962219472570  0.1542303074926252
  0.0877992607393381  0.5009952958810757  0.1542492278970542
  0.1654656213092665  0.6493927463863898  0.1542342469046432
  0.3506044280673279  0.8345149962619374  0.1542491138359452
  0.2025099032854172  0.9164589647675569  0.1540321080485683
  0.0835262268490311  0.7974666412495992  0.1540183332676079
  0.6480944849570633  0.8339161912886013  0.1542153544501588
  0.8364450595475645  0.6487457297517096  0.1542011691722465
  0.9160170079815657  0.7965806170887788  0.1539979308217312
  0.4989789470727288  0.9121717595991399  0.1542685343563406
  0.9168408484338713  0.5008202572594840  0.1542268050507829
  0.6685902877232621  0.3313785124850028  0.1543805924296819
  0.3287460677704033  0.3275994990889046  0.1544200803884692
  0.3272309148145567  0.6727578631705171  0.1543950279719084
  0.6723963747290753  0.6712660223371998  0.1543691810679846
  0.5013637785920722  0.4986430962615387  0.1549595036022140
 
  0.00000000E+00  0.00000000E+00  0.00000000E+00
  0.00000000E+00  0.00000000E+00  0.00000000E+00
  0.00000000E+00  0.00000000E+00  0.00000000E+00
  0.00000000E+00  0.00000000E+00  0.00000000E+00
  0.00000000E+00  0.00000000E+00  0.00000000E+00
  0.00000000E+00  0.00000000E+00  0.00000000E+00
  0.00000000E+00  0.00000000E+00  0.00000000E+00
  0.00000000E+00  0.00000000E+00  0.00000000E+00
  0.00000000E+00  0.00000000E+00  0.00000000E+00
  0.00000000E+00  0.00000000E+00  0.00000000E+00
  0.00000000E+00  0.00000000E+00  0.00000000E+00
  0.00000000E+00  0.00000000E+00  0.00000000E+00
  0.00000000E+00  0.00000000E+00  0.00000000E+00
  0.00000000E+00  0.00000000E+00  0.00000000E+00
  0.00000000E+00  0.00000000E+00  0.00000000E+00
  0.00000000E+00  0.00000000E+00  0.00000000E+00
  0.00000000E+00  0.00000000E+00  0.00000000E+00
  0.00000000E+00  0.00000000E+00  0.00000000E+00
  0.00000000E+00  0.00000000E+00  0.00000000E+00
  0.00000000E+00  0.00000000E+00  0.00000000E+00
  0.00000000E+00  0.00000000E+00  0.00000000E+00
  0.00000000E+00  0.00000000E+00  0.00000000E+00
  0.00000000E+00  0.00000000E+00  0.00000000E+00
  0.00000000E+00  0.00000000E+00  0.00000000E+00
  0.00000000E+00  0.00000000E+00  0.00000000E+00
