 C  N Mn                                
   1.00000000000000     
     8.4758839339680989   -0.0000098687689237   -0.0007410285260075
    -0.0000050202588935    8.4585237323627567    0.0007850000024838
    -0.0017340304724566    0.0018404282920004   19.7580905651747081
   C    N    Mn
    22     2     1
Direct
  0.4975689277638444  0.0853674586416050  0.1543062194447522
  0.3511916196497051  0.1656820670927155  0.1542868560540802
  0.6439371975676116  0.1674691622815808  0.1542844228543524
  0.7953554125392236  0.9172333143933202  0.1540039248123734
  0.7953560707586076  0.0827197964076841  0.1540324207910519
  0.9169537518591878  0.2043501189349035  0.1540102159277086
  0.8366698434787706  0.3545019070735501  0.1542265407523232
  0.2030015921768928  0.0837820362288261  0.1540442836490693
  0.0836729558946263  0.2031027459526208  0.1540147108387032
  0.1687741751799921  0.3522427469631899  0.1542417695120575
  0.0905350951585404  0.4999698898893152  0.1542419381387182
  0.1687701210693228  0.6477120393819252  0.1542403082340280
  0.3511856093264843  0.8342633083536024  0.1542593995691703
  0.2030002797585383  0.9161709164803375  0.1540498979355155
  0.0836781760988942  0.7968399596015576  0.1540311336766878
  0.6439252342641755  0.8324704688603906  0.1542075672526598
  0.8366755064287108  0.6454391504960697  0.1541666265581118
  0.9169497422667040  0.7955926185375672  0.1539894185746315
  0.4975666847912291  0.9145725406440046  0.1542715736531456
  0.9200958269881524  0.4999738386823604  0.1542066478031053
  0.6677315554915869  0.3342955267769857  0.1544488617827293
  0.6677343663411018  0.6656430965382699  0.1543423038285617
  0.3298152953764455  0.3287777427000460  0.1544194589541289
  0.3298163714041136  0.6711648337540151  0.1543896324688252
  0.5003881482986476  0.4999756329217273  0.1546968767543029
 
  0.00000000E+00  0.00000000E+00  0.00000000E+00
  0.00000000E+00  0.00000000E+00  0.00000000E+00
  0.00000000E+00  0.00000000E+00  0.00000000E+00
  0.00000000E+00  0.00000000E+00  0.00000000E+00
  0.00000000E+00  0.00000000E+00  0.00000000E+00
  0.00000000E+00  0.00000000E+00  0.00000000E+00
  0.00000000E+00  0.00000000E+00  0.00000000E+00
  0.00000000E+00  0.00000000E+00  0.00000000E+00
  0.00000000E+00  0.00000000E+00  0.00000000E+00
  0.00000000E+00  0.00000000E+00  0.00000000E+00
  0.00000000E+00  0.00000000E+00  0.00000000E+00
  0.00000000E+00  0.00000000E+00  0.00000000E+00
  0.00000000E+00  0.00000000E+00  0.00000000E+00
  0.00000000E+00  0.00000000E+00  0.00000000E+00
  0.00000000E+00  0.00000000E+00  0.00000000E+00
  0.00000000E+00  0.00000000E+00  0.00000000E+00
  0.00000000E+00  0.00000000E+00  0.00000000E+00
  0.00000000E+00  0.00000000E+00  0.00000000E+00
  0.00000000E+00  0.00000000E+00  0.00000000E+00
  0.00000000E+00  0.00000000E+00  0.00000000E+00
  0.00000000E+00  0.00000000E+00  0.00000000E+00
  0.00000000E+00  0.00000000E+00  0.00000000E+00
  0.00000000E+00  0.00000000E+00  0.00000000E+00
  0.00000000E+00  0.00000000E+00  0.00000000E+00
  0.00000000E+00  0.00000000E+00  0.00000000E+00
