 C  N Ti                                
   1.00000000000000     
    12.4632727025083625    0.0000000000000000    0.0000000000000000
    -0.0000000000000004   12.7976477116631067    0.0000000000000000
     0.0000000000000003    0.0000000000000000   19.8713392819153718
   C    N    Ti
    55     3     1
Direct
  0.0523152072784627  0.0475894710507522  0.1596967420871852
  0.1527543130592074  0.1029549780652875  0.1596814124780091
  0.1525884621686292  0.2141952595858537  0.1594822401509181
  0.0526314388155545  0.2693212112201760  0.1596588469292620
  0.2530060691914132  0.0480148344686198  0.1594727926825904
  0.3532285584281044  0.1035799296646930  0.1585446570531969
  0.3528686077039130  0.2152142683756268  0.1572071108995921
  0.2522826297487711  0.2700411176925452  0.1583945506390729
  0.4536999113148917  0.0478992319083915  0.1585028526568567
  0.5532797514601414  0.1051314871439090  0.1583556957479298
  0.5537824324826406  0.2179954748954299  0.1577594904790645
  0.4524635602289588  0.2734344757933614  0.1556671582554738
  0.6518120225225541  0.0472391779962869  0.1587518702910038
  0.7517770538499281  0.1031156704298814  0.1585468733603960
  0.7527428732974649  0.2149584013294985  0.1584854492127119
  0.6543269904618729  0.2735939579909947  0.1590942324150663
  0.8518057110593338  0.0473845012663714  0.1590277278741562
  0.9520805807206273  0.1024470913695156  0.1593982071637540
  0.9526159783431816  0.2138043149805546  0.1594399143896391
  0.8535017230030274  0.2691726568623170  0.1591493266384665
  0.0522194395429957  0.3803258623826558  0.1595881409642311
  0.1509277708156420  0.4364844352110925  0.1597429858538424
  0.1504852580117947  0.5478343059681400  0.1597685543055521
  0.0518683320128301  0.6036213337520610  0.1596158582015273
  0.2500887469299737  0.3815630688329928  0.1586970028557546
  0.3490034809151987  0.4378153114460496  0.1563514309595131
  0.3472100393672903  0.5501702676424073  0.1572161736369257
  0.2488570901813907  0.6043243266233486  0.1590275722167050
  0.7555437592111737  0.4353179147258960  0.1600053705957257
  0.7554932927749337  0.5474184388074516  0.1587864893032844
  0.8544535625829179  0.3806105999849101  0.1593030215016534
  0.9533682367389043  0.4362066564354629  0.1592612994010040
  0.9532136405909083  0.5473241133135677  0.1592024016728744
  0.8543197713899010  0.6025487124666250  0.1586644323670473
  0.0518727731728088  0.7146522304297394  0.1596413058574433
  0.1515770515208543  0.7705506583145980  0.1595934173453852
  0.0520712964711915  0.9366707886244879  0.1597010955445694
  0.2505974393601650  0.7154322867125734  0.1588409847733459
  0.3515917675653267  0.7691765039922889  0.1578120365960337
  0.3528750789494127  0.8806669777219516  0.1586294140494587
  0.2528060392171156  0.9363534976174284  0.1594682871411266
  0.4498648160421752  0.7100423886008551  0.1570931508691279
  0.5521134377846739  0.7636149633746315  0.1578976203351094
  0.5523692797173791  0.8772442740147542  0.1584593771974772
  0.4535112577634206  0.9355606652889696  0.1586002767202519
  0.6537313305659667  0.7081995631560699  0.1580117525384785
  0.7521341135863117  0.7676748891506809  0.1580462373645604
  0.7514514135880865  0.8793843258133200  0.1585612079219468
  0.6513993227619389  0.9347935513806814  0.1587607868417934
  0.8530141862500312  0.7138610220394184  0.1585705651558522
  0.9521016384875979  0.7697539497758662  0.1592610021703023
  0.8515559463343462  0.9356328889597969  0.1590562237153121
  0.1522956287047100  0.8816929790573295  0.1596865320710163
  0.9518690731075111  0.8811249084975550  0.1593828302281095
  0.4484196505277723  0.3836826629384479  0.1543058083025584
  0.4444304248617507  0.6025758441421942  0.1570611134429944
  0.6580618935182488  0.3823266426848176  0.1627089931442309
  0.6580684372660948  0.6001700571183072  0.1593089178020783
  0.5477804966600537  0.4910886170274239  0.1933732371033703
 
  0.00000000E+00  0.00000000E+00  0.00000000E+00
  0.00000000E+00  0.00000000E+00  0.00000000E+00
  0.00000000E+00  0.00000000E+00  0.00000000E+00
  0.00000000E+00  0.00000000E+00  0.00000000E+00
  0.00000000E+00  0.00000000E+00  0.00000000E+00
  0.00000000E+00  0.00000000E+00  0.00000000E+00
  0.00000000E+00  0.00000000E+00  0.00000000E+00
  0.00000000E+00  0.00000000E+00  0.00000000E+00
  0.00000000E+00  0.00000000E+00  0.00000000E+00
  0.00000000E+00  0.00000000E+00  0.00000000E+00
  0.00000000E+00  0.00000000E+00  0.00000000E+00
  0.00000000E+00  0.00000000E+00  0.00000000E+00
  0.00000000E+00  0.00000000E+00  0.00000000E+00
  0.00000000E+00  0.00000000E+00  0.00000000E+00
  0.00000000E+00  0.00000000E+00  0.00000000E+00
  0.00000000E+00  0.00000000E+00  0.00000000E+00
  0.00000000E+00  0.00000000E+00  0.00000000E+00
  0.00000000E+00  0.00000000E+00  0.00000000E+00
  0.00000000E+00  0.00000000E+00  0.00000000E+00
  0.00000000E+00  0.00000000E+00  0.00000000E+00
  0.00000000E+00  0.00000000E+00  0.00000000E+00
  0.00000000E+00  0.00000000E+00  0.00000000E+00
  0.00000000E+00  0.00000000E+00  0.00000000E+00
  0.00000000E+00  0.00000000E+00  0.00000000E+00
  0.00000000E+00  0.00000000E+00  0.00000000E+00
  0.00000000E+00  0.00000000E+00  0.00000000E+00
  0.00000000E+00  0.00000000E+00  0.00000000E+00
  0.00000000E+00  0.00000000E+00  0.00000000E+00
  0.00000000E+00  0.00000000E+00  0.00000000E+00
  0.00000000E+00  0.00000000E+00  0.00000000E+00
  0.00000000E+00  0.00000000E+00  0.00000000E+00
  0.00000000E+00  0.00000000E+00  0.00000000E+00
  0.00000000E+00  0.00000000E+00  0.00000000E+00
  0.00000000E+00  0.00000000E+00  0.00000000E+00
  0.00000000E+00  0.00000000E+00  0.00000000E+00
  0.00000000E+00  0.00000000E+00  0.00000000E+00
  0.00000000E+00  0.00000000E+00  0.00000000E+00
  0.00000000E+00  0.00000000E+00  0.00000000E+00
  0.00000000E+00  0.00000000E+00  0.00000000E+00
  0.00000000E+00  0.00000000E+00  0.00000000E+00
  0.00000000E+00  0.00000000E+00  0.00000000E+00
  0.00000000E+00  0.00000000E+00  0.00000000E+00
  0.00000000E+00  0.00000000E+00  0.00000000E+00
  0.00000000E+00  0.00000000E+00  0.00000000E+00
  0.00000000E+00  0.00000000E+00  0.00000000E+00
  0.00000000E+00  0.00000000E+00  0.00000000E+00
  0.00000000E+00  0.00000000E+00  0.00000000E+00
  0.00000000E+00  0.00000000E+00  0.00000000E+00
  0.00000000E+00  0.00000000E+00  0.00000000E+00
  0.00000000E+00  0.00000000E+00  0.00000000E+00
  0.00000000E+00  0.00000000E+00  0.00000000E+00
  0.00000000E+00  0.00000000E+00  0.00000000E+00
  0.00000000E+00  0.00000000E+00  0.00000000E+00
  0.00000000E+00  0.00000000E+00  0.00000000E+00
  0.00000000E+00  0.00000000E+00  0.00000000E+00
  0.00000000E+00  0.00000000E+00  0.00000000E+00
  0.00000000E+00  0.00000000E+00  0.00000000E+00
  0.00000000E+00  0.00000000E+00  0.00000000E+00
  0.00000000E+00  0.00000000E+00  0.00000000E+00
