 C  N Ni                                
   1.00000000000000     
     8.4149573926889349    0.0000000000000001    0.0000000000000000
    -0.0000000000000001    8.4238851822178145    0.0000000000000000
    -0.0000000000000002    0.0000000000000000   19.8713392818999957
   C    N    Ni
    22     2     1
Direct
  0.4979996158107229  0.0855750873143438  0.1543123335077100
  0.3510753989512722  0.1669581853587218  0.1542860444073765
  0.6425428490174082  0.1688172613428808  0.1542647507564220
  0.7933292749300170  0.9172211106242235  0.1540026818930700
  0.7933389223909230  0.0827095721681799  0.1540100920686051
  0.9170398730660939  0.2052907175071627  0.1539965097121469
  0.8351350951375484  0.3558114721031763  0.1542209068565516
  0.2036038459500875  0.0836797417018462  0.1540160567138416
  0.0830039354531460  0.2035450167897736  0.1539921182307942
  0.1710184474557280  0.3531934303088655  0.1542485273103091
  0.0908885842409136  0.4999783215369885  0.1542618043417810
  0.1710053898582125  0.6467650950995169  0.1542670754539766
  0.3510646076308340  0.8329952699223848  0.1542908053168589
  0.2035922051261203  0.9162787525825035  0.1540282841087438
  0.0829881340675541  0.7964112036888511  0.1540166905925365
  0.6425272623528645  0.8311202684452981  0.1542445815707522
  0.8351266890208793  0.6441179853714040  0.1542142494131012
  0.9170254236522140  0.7946456682874187  0.1540003795006901
  0.4979879513166713  0.9143683684446352  0.1543036799462470
  0.9208824729095468  0.4999686602131169  0.1542265576336447
  0.6651494559101235  0.3397133532842461  0.1544012438542652
  0.6651392103352960  0.6602229622677944  0.1543862765772010
  0.3322355180925066  0.3311547604234111  0.1544233437095641
  0.3322232774146742  0.6688020541833157  0.1544313607333907
  0.5044261198397511  0.4999685986181113  0.1545666556112135
 
  0.00000000E+00  0.00000000E+00  0.00000000E+00
  0.00000000E+00  0.00000000E+00  0.00000000E+00
  0.00000000E+00  0.00000000E+00  0.00000000E+00
  0.00000000E+00  0.00000000E+00  0.00000000E+00
  0.00000000E+00  0.00000000E+00  0.00000000E+00
  0.00000000E+00  0.00000000E+00  0.00000000E+00
  0.00000000E+00  0.00000000E+00  0.00000000E+00
  0.00000000E+00  0.00000000E+00  0.00000000E+00
  0.00000000E+00  0.00000000E+00  0.00000000E+00
  0.00000000E+00  0.00000000E+00  0.00000000E+00
  0.00000000E+00  0.00000000E+00  0.00000000E+00
  0.00000000E+00  0.00000000E+00  0.00000000E+00
  0.00000000E+00  0.00000000E+00  0.00000000E+00
  0.00000000E+00  0.00000000E+00  0.00000000E+00
  0.00000000E+00  0.00000000E+00  0.00000000E+00
  0.00000000E+00  0.00000000E+00  0.00000000E+00
  0.00000000E+00  0.00000000E+00  0.00000000E+00
  0.00000000E+00  0.00000000E+00  0.00000000E+00
  0.00000000E+00  0.00000000E+00  0.00000000E+00
  0.00000000E+00  0.00000000E+00  0.00000000E+00
  0.00000000E+00  0.00000000E+00  0.00000000E+00
  0.00000000E+00  0.00000000E+00  0.00000000E+00
  0.00000000E+00  0.00000000E+00  0.00000000E+00
  0.00000000E+00  0.00000000E+00  0.00000000E+00
  0.00000000E+00  0.00000000E+00  0.00000000E+00
