 C  N  V                                
   1.00000000000000     
     8.5192756118471955    0.0000000000000001    0.0000000000000000
    -0.0000000000000001    8.5194447346010875    0.0000000000000000
    -0.0000000000000002    0.0000000000000000   19.8713392818999957
   C    N    V 
    23     1     1
Direct
  0.5012341556981600  0.0825023810980940  0.1542410602587843
  0.3537564492305982  0.1619473860714425  0.1542318337779065
  0.6463041203470672  0.1648438661760286  0.1542091184778251
  0.7970052213554002  0.9182026979104029  0.1540700405992800
  0.7947941583097476  0.0835356796632772  0.1540632593466487
  0.9175784926590245  0.2054962725671743  0.1540247188565055
  0.8362490646643941  0.3545306269187540  0.1541150944904622
  0.2046394998902014  0.0818145713881251  0.1540938512278199
  0.0818737916269870  0.2046000734135236  0.1540760503666107
  0.1620128753719173  0.3537239829566793  0.1542092065099963
  0.0825597223314983  0.5011875267576064  0.1542193447458595
  0.1648952280736528  0.6462550337328922  0.1542187651885700
  0.3545566243990212  0.8362212173337248  0.1541643129027020
  0.2055393249396932  0.9175576610798010  0.1540601026588987
  0.0835759460190636  0.7947501958650022  0.1540775174003133
  0.6496368854019782  0.8339855060985796  0.1541889646116097
  0.8340186381129141  0.6495944248884462  0.1541726482672001
  0.9182511707314411  0.7969666922920939  0.1540652892754893
  0.5015589256323799  0.9141325142175598  0.1542102948474380
  0.9141692865764091  0.5015063822639082  0.1541754508667764
  0.6695039449783579  0.3341138257535459  0.1543518415990632
  0.3305847142795252  0.3305333206179187  0.1544063495922501
  0.3341580791227501  0.6694711889217044  0.1543880400365202
  0.6723217826847971  0.6722834184019654  0.1542921633743539
  0.4895714574941302  0.4895564711999209  0.1550876905419100
 
  0.00000000E+00  0.00000000E+00  0.00000000E+00
  0.00000000E+00  0.00000000E+00  0.00000000E+00
  0.00000000E+00  0.00000000E+00  0.00000000E+00
  0.00000000E+00  0.00000000E+00  0.00000000E+00
  0.00000000E+00  0.00000000E+00  0.00000000E+00
  0.00000000E+00  0.00000000E+00  0.00000000E+00
  0.00000000E+00  0.00000000E+00  0.00000000E+00
  0.00000000E+00  0.00000000E+00  0.00000000E+00
  0.00000000E+00  0.00000000E+00  0.00000000E+00
  0.00000000E+00  0.00000000E+00  0.00000000E+00
  0.00000000E+00  0.00000000E+00  0.00000000E+00
  0.00000000E+00  0.00000000E+00  0.00000000E+00
  0.00000000E+00  0.00000000E+00  0.00000000E+00
  0.00000000E+00  0.00000000E+00  0.00000000E+00
  0.00000000E+00  0.00000000E+00  0.00000000E+00
  0.00000000E+00  0.00000000E+00  0.00000000E+00
  0.00000000E+00  0.00000000E+00  0.00000000E+00
  0.00000000E+00  0.00000000E+00  0.00000000E+00
  0.00000000E+00  0.00000000E+00  0.00000000E+00
  0.00000000E+00  0.00000000E+00  0.00000000E+00
  0.00000000E+00  0.00000000E+00  0.00000000E+00
  0.00000000E+00  0.00000000E+00  0.00000000E+00
  0.00000000E+00  0.00000000E+00  0.00000000E+00
  0.00000000E+00  0.00000000E+00  0.00000000E+00
  0.00000000E+00  0.00000000E+00  0.00000000E+00
