 C  N  H Fe  O                          
   1.00000000000000     
    11.1250685772747229  -19.2625028043143729   -0.0702278961800618
    11.1173086838092985   19.2578364808117435   -0.0062806924634707
    -0.0379159666555763    0.0104224462118527   25.6100788820985841
   C    N    H    Fe   O 
   198     8    16     1     8
Direct
  0.9999011454979186  0.9998639325390825  0.0399270518056081
  0.0370000982929639  0.0739772675415019  0.0387445122308550
  0.9999982443940627  0.1110658283625168  0.0392154006671742
  0.0370637082644544  0.1851672770469300  0.0375613446234893
  0.0000610391819644  0.2222685146142122  0.0379713062409465
  0.0370102156477779  0.2962782495283854  0.0352784474908180
  0.9999538840818771  0.3333031084832170  0.0350673477754893
  0.0368767874488528  0.4072384567334374  0.0321874216005489
  0.9998553148136163  0.4442552870388253  0.0330080474970449
  0.0368555665631602  0.5183546219817227  0.0327787868853144
  0.9997634286732502  0.5553465757875657  0.0348152417995776
  0.0367745163284963  0.6293460376006098  0.0372634900862073
  0.9996475685827421  0.6663109530137663  0.0388127964490452
  0.0366941297935487  0.7403691587801691  0.0410665479892434
  0.9996631239118345  0.7774483132024950  0.0411780156444508
  0.0367818428819140  0.8515918662961006  0.0416780058213505
  0.9997934587134625  0.8886756991992564  0.0409157182323409
  0.0369196720922751  0.9627848354869832  0.0401803425713468
  0.1109849833192064  0.9998012662857463  0.0385831692461418
  0.1479885796895259  0.0738200723370492  0.0356457936772250
  0.1110435735056245  0.1109653707338835  0.0359495271094662
  0.1479842001568119  0.1849622288373834  0.0330627336156664
  0.1110580982376836  0.2221178253282749  0.0342688751700822
  0.1480089503112276  0.2961698342386671  0.0315079658259872
  0.1109988357801815  0.3332584940004166  0.0319671990692426
  0.1478914170969354  0.4072514116087882  0.0287230994405662
  0.1108491330125181  0.4442682743738582  0.0291604267092182
  0.1478592832350225  0.5183532964066240  0.0282747931427313
  0.1108993625264624  0.5554164255638397  0.0310943628635034
  0.1479190983487156  0.6294177112428126  0.0337389829923277
  0.1109049363876244  0.6663500936810038  0.0374430833099807
  0.1479245992876424  0.7404049859378855  0.0402064717029477
  0.1108609145438356  0.7774481369013556  0.0418005738930049
  0.1478991834093251  0.8515642232232908  0.0421721933507696
  0.1109093014578049  0.8886960892933380  0.0415285961454842
  0.1479353546944696  0.9627070035522621  0.0392966172866640
  0.2219987239246321  0.9997643750440142  0.0377988960598781
  0.2589954766610497  0.0737189978198156  0.0343436960643612
  0.2219588836064191  0.1107905298721615  0.0327102680578335
  0.2589174722323263  0.1847762452361879  0.0294932905258803
  0.2219281904974885  0.2218951583429745  0.0294307920430831
  0.2588815467746601  0.2959445235968879  0.0272507045386463
  0.2219657207016577  0.3331147279355641  0.0280162493139654
  0.2588925883461364  0.4071536009126092  0.0257793925725190
  0.2219014050405956  0.4442629505522945  0.0259947643109770
  0.2589508015722613  0.5184102923291081  0.0250287752769430
  0.2219674996814870  0.5554684278236086  0.0266967262851715
  0.2590501420050951  0.6295491614328531  0.0291495658584300
  0.2220478677963056  0.6664642814172569  0.0332912956976374
  0.2590627764165491  0.7404054574382465  0.0373196235059061
  0.2220309030497006  0.7774271993637157  0.0402902378543583
  0.2590758760139377  0.8515506861656552  0.0418997743287561
  0.2220242055896499  0.8886379701275615  0.0419474392189284
  0.2590611862424623  0.9627854537225674  0.0401655348364857
  0.3331801764760516  0.9998795998180038  0.0400398345613085
  0.3701563707622077  0.0739199879823446  0.0372239125241582
  0.3330950020543245  0.1108295664724779  0.0337651030550181
  0.3700703680652430  0.1848246563359608  0.0304426500933065
  0.3329839873728368  0.2218231564824875  0.0280333416148483
  0.3700093889435829  0.2958751830874730  0.0259674211172485
  0.3329541494063299  0.3329784169918628  0.0255267679777997
  0.3699738101012556  0.4070924005742518  0.0245786234760635
  0.3330024965550038  0.4442130113330955  0.0244141930627365
  0.3701035918917469  0.5184001370711911  0.0240014009888649
  0.3330777121348988  0.5554777594993490  0.0245550015922741
  0.3701766149485164  0.6295546755664908  0.0266502155969365
  0.3331385591145418  0.6665456832280664  0.0295280371388366
  0.3701889271521310  0.7404577243123991  0.0341285920061208
  0.3331940498277540  0.7774501551928664  0.0377072409374403
  0.3702432144179563  0.8515301743152658  0.0407218608510621
  0.3332172432033508  0.8886397452230455  0.0419803704283450
  0.3702198843603287  0.9627879686573760  0.0418353622710807
  0.4443383297708953  0.9998773022725091  0.0419313284561754
  0.4813190595213578  0.0740072494429450  0.0403027912586975
  0.4442612407413096  0.1110272588259655  0.0374783047853618
  0.4812284543705870  0.1850049457961340  0.0339254944955251
  0.4441553332493827  0.2219344215026300  0.0303416109997396
  0.4812014380680258  0.2959320249578995  0.0269615433652257
  0.4441474013057745  0.3329479743994254  0.0252376064737900
  0.4812469422931530  0.4070485445713521  0.0241007583898844
  0.4441783144967374  0.4441638897519691  0.0243688547024931
  0.4813100532543206  0.5183951521594975  0.0240417958231813
  0.4442264077363720  0.5554623027959266  0.0241198588496588
  0.4813169509705053  0.6295599979621656  0.0252555020669615
  0.4442664059723292  0.6665375708976412  0.0274776640510493
  0.4813648672024300  0.7405586993844272  0.0312459196495526
  0.4443460219861246  0.7775054217774335  0.0348706174549004
  0.4813657340869109  0.8515181757990200  0.0384807204635725
  0.4443449058718048  0.8885909994809895  0.0409246181048618
  0.4813553342395571  0.9627436702057440  0.0421561552984008
  0.5554778043393644  0.9998343685888154  0.0419959995280943
  0.5924635738648567  0.0739766129162097  0.0416160792795909
  0.5554108354284574  0.1110758409135617  0.0401422152975706
  0.5923950584508459  0.1851193247089689  0.0370787455525693
  0.5553539319902395  0.2220857038968548  0.0334758531726012
  0.5923480885231193  0.2960025546319319  0.0291831704310798
  0.5552936306333838  0.3329721048581217  0.0263283758677375
  0.5923640830778327  0.4070458242170885  0.0243015163865428
  0.5553576134694479  0.4441384732383618  0.0235268622122932
  0.5924491632548311  0.5183122930095790  0.0235520392286703
  0.5554934067671586  0.5554375890057304  0.0236689431921894
  0.5925338070520489  0.6295703475663443  0.0244601593072857
  0.5554660781679051  0.6666263189591795  0.0255833128559857
  0.5925203717561738  0.7406736620561833  0.0280867441529185
  0.5554623645821786  0.7776303158315424  0.0313781858957835
  0.5924894689091398  0.8516365204093868  0.0349721248343821
  0.5554727891146266  0.8886021690756633  0.0383898655508019
  0.5924947464675046  0.9627146551134674  0.0406899898994974
  0.6666006952880145  0.9998084456623634  0.0404044433785677
  0.7036339080702939  0.0739758703604706  0.0413954308864432
  0.6665790200181108  0.1110590553146875  0.0412680241945609
  0.7035838366579140  0.1851732365191389  0.0394893282801215
  0.6665238799728253  0.2221794208786982  0.0367451411875926
  0.7034813586461270  0.2961214124658519  0.0330639841176570
  0.6664339906457091  0.3330368394074875  0.0291337710838126
  0.7034776681537137  0.4070925840622631  0.0271353800165749
  0.6664853798863760  0.4441393343729294  0.0251599220104095
  0.7035545515632646  0.5182979754319903  0.0260461391657280
  0.6665865760669007  0.5554054089742579  0.0250603538500499
  0.7035776185188151  0.6294859107118874  0.0269519154732646
  0.6666413529535951  0.6666424547250992  0.0258713887686311
  0.7036488106372842  0.7407114592530516  0.0280885747735372
  0.6666184545957493  0.7777576294115716  0.0289579041402354
  0.7036384398050918  0.8517678895575375  0.0324897683332861
  0.6666073528867996  0.8887749722482109  0.0350262822609105
  0.7036381486949963  0.9627822719556577  0.0381262764337348
  0.7777273346748322  0.9998876645709155  0.0387449526014725
  0.8147630367152938  0.0739533983539449  0.0405005434424883
  0.7777675160156279  0.1110668117939508  0.0411162682161624
  0.8147806495157204  0.1851723359617549  0.0404909778655140
  0.7776869934206385  0.2222031406890528  0.0391908220341599
  0.8146517396700564  0.2962317981621638  0.0367495680835541
  0.7775864639807158  0.3331742262622231  0.0336582929501694
  0.8145883060919440  0.4071958845370832  0.0316382440197366
  0.7775837677730965  0.4442291033064911  0.0291679311531286
  0.8146074244615197  0.5182985778544202  0.0303695354971767
  0.7775502883968973  0.5553088706839947  0.0294506463090378
  0.8145077873921999  0.6293490297674605  0.0324545337908744
  0.7775355096581779  0.6664550483604156  0.0309947961854647
  0.8145670613076300  0.7405553386070346  0.0334914141983532
  0.7776649908724360  0.7776985698151669  0.0316847783478972
  0.8146403802715303  0.8517046755000609  0.0347468217362962
  0.7776797980330581  0.8888236351886333  0.0347035042403370
  0.8146902847257491  0.9628260349182010  0.0376672612513833
  0.8887644626059715  0.9998803547091593  0.0393385617375078
  0.9258730997809325  0.0739813914164435  0.0401348727117120
  0.8888826029820343  0.1110702665304008  0.0404928729624753
  0.9259521502422863  0.1851849707515064  0.0398458510925062
  0.8889098882150883  0.2222449720774504  0.0395928549067072
  0.9259183001084746  0.2962908416616258  0.0374344117149342
  0.8887770570096287  0.3332492387673319  0.0363673026448040
  0.9257551643451148  0.4072566069532615  0.0343768004332494
  0.8886575909106255  0.4442742190136991  0.0331052977112532
  0.9256506451055126  0.5183324299455213  0.0337481634940733
  0.8885971282962050  0.5553257170285645  0.0334827614839781
  0.9255698379613316  0.6292877202841279  0.0364641239043201
  0.8885243916743909  0.6663277285742136  0.0363270863580441
  0.9255395198309533  0.7403784966045960  0.0388783231221249
  0.8885497384796720  0.7774913788570129  0.0376267428893786
  0.9256546602435136  0.8516029253559387  0.0392974735333075
  0.8886668306721309  0.8886914660889331  0.0381345567013673
  0.9257721212732318  0.9628142445320286  0.0395360727113588
  0.2643068620728898  0.1365721610607672  0.1575286298712563
  0.3344162461382314  0.1894627181459135  0.1562846128153714
  0.3483852077720717  0.2580583239193162  0.1545363363837884
  0.2944929657524928  0.2743156574880148  0.1537101112103480
  0.2244848214248594  0.2215679632455087  0.1542838965419089
  0.2100719172895386  0.1528616105181273  0.1563609302956724
  0.3281549632631591  0.3498236437919749  0.1516835079599913
  0.4135945670007607  0.3238385089267719  0.1526116727238934
  0.3242324354928711  0.4522913207874326  0.1512256878334215
  0.4042374595432672  0.5659974871919491  0.1518215621761378
  0.2860989585918867  0.4899971851033606  0.1522291001754394
  0.3366348554496467  0.5615476906096507  0.1524248553326731
  0.3171851858544336  0.6126053310075674  0.1523137117902058
  0.2463604942414928  0.5906818302178373  0.1528085878363638
  0.1953780307698335  0.5188879665687192  0.1533809936381346
  0.2151540754995243  0.4677175364542597  0.1526512848812175
  0.5339557891719342  0.3872702040661585  0.1517549628141029
  0.6139348280327487  0.5007060100055210  0.1507975218018278
  0.6202935372516261  0.3400502523377296  0.1534773368676743
  0.6910188598171558  0.3615726082659678  0.1545528369382101
  0.7422129671747645  0.4332756327457355  0.1547056816725707
  0.7228876116671973  0.4848037553434020  0.1532231814436601
  0.6520527489877186  0.4629256277887906  0.1523786490101559
  0.6013502375675802  0.3914431726117602  0.1527915894828812
  0.6097162898652739  0.6029677891430376  0.1506171952228811
  0.5248296191342049  0.6298001599304610  0.1526349917907441
  0.6438347252908586  0.6783267806665801  0.1524478118726582
  0.7142242490817478  0.7297659548013024  0.1521884275283111
  0.7303234263388327  0.7988879904003872  0.1548640090781062
  0.6771925484876524  0.8165509059281099  0.1581248947581405
  0.6064655438137297  0.7647890131612124  0.1575414187337645
  0.5906067245236800  0.6955408363855937  0.1544207833790354
  0.1198812171475863  0.4955576226304380  0.1534055990162670
  0.6998687054269168  0.8918013515618826  0.1614468322730692
  0.8175954488253682  0.4561360238081570  0.1552161703144112
  0.2441046539283682  0.0618560613812783  0.1585488048951409
  0.4002942610179094  0.3787625567103932  0.1510423597182152
  0.2926605775626668  0.3833748239876657  0.1512761704837494
  0.3956060810342945  0.4992994173974417  0.1508596005569060
  0.4747910569759380  0.3270256229620315  0.1526813359236716
  0.5425542003891168  0.4538709590832605  0.1505108733892521
  0.6453347129589218  0.5695197280866161  0.1502462007645136
  0.5377301808898766  0.5745085921239178  0.1506814495948911
  0.4634571791006187  0.6263552777098936  0.1528372937723877
  0.3763170147396564  0.1775347291502362  0.1559553252624078
  0.1830333468129089  0.2341967218545792  0.1521446683051122
  0.1567042571665475  0.1098036182314543  0.1559096568163245
  0.3563758129561612  0.6675806016245635  0.1508507485709079
  0.2292312878213433  0.6288109791086213  0.1516164275134887
  0.1757822715391179  0.4128045169749301  0.1518043402070539
  0.5807685925583410  0.2851573331664113  0.1522396986707086
  0.7078566734672496  0.3232108966336695  0.1541226343309298
  0.7625256344239585  0.5396012777676684  0.1521799174070826
  0.7544566594707859  0.7155834542365812  0.1488575360378041
  0.7840485187548227  0.8411293595198913  0.1537548805786297
  0.5657069747806692  0.7783341814661874  0.1588608493559817
  0.0566501067675739  0.5293027952133109  0.1515510684748453
  0.6674936732999414  0.9548872083216842  0.1715395675666291
  0.8804718256905244  0.4219592156545731  0.1566864792379233
  0.2808799914238703  0.0013381858928984  0.1573762043533612
  0.4689912686924392  0.4766194731509934  0.1493665289165076
  0.1071052601705299  0.5501602413541276  0.1544011011268577
  0.0724639194365504  0.4348553918859057  0.1521501259464634
  0.6459184752474084  0.9042191071245942  0.1701640282024386
  0.7600691017429837  0.9394749550195363  0.1571269254444015
  0.8299965582298496  0.4013750497330420  0.1584121563800895
  0.8652310985893580  0.5166192764088213  0.1526938372012291
  0.3004063325256495  0.0517409391350281  0.1587915119918427
  0.1841706185659797  0.0129030022402565  0.1584667745294182
 
  0.00000000E+00  0.00000000E+00  0.00000000E+00
  0.00000000E+00  0.00000000E+00  0.00000000E+00
  0.00000000E+00  0.00000000E+00  0.00000000E+00
  0.00000000E+00  0.00000000E+00  0.00000000E+00
  0.00000000E+00  0.00000000E+00  0.00000000E+00
  0.00000000E+00  0.00000000E+00  0.00000000E+00
  0.00000000E+00  0.00000000E+00  0.00000000E+00
  0.00000000E+00  0.00000000E+00  0.00000000E+00
  0.00000000E+00  0.00000000E+00  0.00000000E+00
  0.00000000E+00  0.00000000E+00  0.00000000E+00
  0.00000000E+00  0.00000000E+00  0.00000000E+00
  0.00000000E+00  0.00000000E+00  0.00000000E+00
  0.00000000E+00  0.00000000E+00  0.00000000E+00
  0.00000000E+00  0.00000000E+00  0.00000000E+00
  0.00000000E+00  0.00000000E+00  0.00000000E+00
  0.00000000E+00  0.00000000E+00  0.00000000E+00
  0.00000000E+00  0.00000000E+00  0.00000000E+00
  0.00000000E+00  0.00000000E+00  0.00000000E+00
  0.00000000E+00  0.00000000E+00  0.00000000E+00
  0.00000000E+00  0.00000000E+00  0.00000000E+00
  0.00000000E+00  0.00000000E+00  0.00000000E+00
  0.00000000E+00  0.00000000E+00  0.00000000E+00
  0.00000000E+00  0.00000000E+00  0.00000000E+00
  0.00000000E+00  0.00000000E+00  0.00000000E+00
  0.00000000E+00  0.00000000E+00  0.00000000E+00
  0.00000000E+00  0.00000000E+00  0.00000000E+00
  0.00000000E+00  0.00000000E+00  0.00000000E+00
  0.00000000E+00  0.00000000E+00  0.00000000E+00
  0.00000000E+00  0.00000000E+00  0.00000000E+00
  0.00000000E+00  0.00000000E+00  0.00000000E+00
  0.00000000E+00  0.00000000E+00  0.00000000E+00
  0.00000000E+00  0.00000000E+00  0.00000000E+00
  0.00000000E+00  0.00000000E+00  0.00000000E+00
  0.00000000E+00  0.00000000E+00  0.00000000E+00
  0.00000000E+00  0.00000000E+00  0.00000000E+00
  0.00000000E+00  0.00000000E+00  0.00000000E+00
  0.00000000E+00  0.00000000E+00  0.00000000E+00
  0.00000000E+00  0.00000000E+00  0.00000000E+00
  0.00000000E+00  0.00000000E+00  0.00000000E+00
  0.00000000E+00  0.00000000E+00  0.00000000E+00
  0.00000000E+00  0.00000000E+00  0.00000000E+00
  0.00000000E+00  0.00000000E+00  0.00000000E+00
  0.00000000E+00  0.00000000E+00  0.00000000E+00
  0.00000000E+00  0.00000000E+00  0.00000000E+00
  0.00000000E+00  0.00000000E+00  0.00000000E+00
  0.00000000E+00  0.00000000E+00  0.00000000E+00
  0.00000000E+00  0.00000000E+00  0.00000000E+00
  0.00000000E+00  0.00000000E+00  0.00000000E+00
  0.00000000E+00  0.00000000E+00  0.00000000E+00
  0.00000000E+00  0.00000000E+00  0.00000000E+00
  0.00000000E+00  0.00000000E+00  0.00000000E+00
  0.00000000E+00  0.00000000E+00  0.00000000E+00
  0.00000000E+00  0.00000000E+00  0.00000000E+00
  0.00000000E+00  0.00000000E+00  0.00000000E+00
  0.00000000E+00  0.00000000E+00  0.00000000E+00
  0.00000000E+00  0.00000000E+00  0.00000000E+00
  0.00000000E+00  0.00000000E+00  0.00000000E+00
  0.00000000E+00  0.00000000E+00  0.00000000E+00
  0.00000000E+00  0.00000000E+00  0.00000000E+00
  0.00000000E+00  0.00000000E+00  0.00000000E+00
  0.00000000E+00  0.00000000E+00  0.00000000E+00
  0.00000000E+00  0.00000000E+00  0.00000000E+00
  0.00000000E+00  0.00000000E+00  0.00000000E+00
  0.00000000E+00  0.00000000E+00  0.00000000E+00
  0.00000000E+00  0.00000000E+00  0.00000000E+00
  0.00000000E+00  0.00000000E+00  0.00000000E+00
  0.00000000E+00  0.00000000E+00  0.00000000E+00
  0.00000000E+00  0.00000000E+00  0.00000000E+00
  0.00000000E+00  0.00000000E+00  0.00000000E+00
  0.00000000E+00  0.00000000E+00  0.00000000E+00
  0.00000000E+00  0.00000000E+00  0.00000000E+00
  0.00000000E+00  0.00000000E+00  0.00000000E+00
  0.00000000E+00  0.00000000E+00  0.00000000E+00
  0.00000000E+00  0.00000000E+00  0.00000000E+00
  0.00000000E+00  0.00000000E+00  0.00000000E+00
  0.00000000E+00  0.00000000E+00  0.00000000E+00
  0.00000000E+00  0.00000000E+00  0.00000000E+00
  0.00000000E+00  0.00000000E+00  0.00000000E+00
  0.00000000E+00  0.00000000E+00  0.00000000E+00
  0.00000000E+00  0.00000000E+00  0.00000000E+00
  0.00000000E+00  0.00000000E+00  0.00000000E+00
  0.00000000E+00  0.00000000E+00  0.00000000E+00
  0.00000000E+00  0.00000000E+00  0.00000000E+00
  0.00000000E+00  0.00000000E+00  0.00000000E+00
  0.00000000E+00  0.00000000E+00  0.00000000E+00
  0.00000000E+00  0.00000000E+00  0.00000000E+00
  0.00000000E+00  0.00000000E+00  0.00000000E+00
  0.00000000E+00  0.00000000E+00  0.00000000E+00
  0.00000000E+00  0.00000000E+00  0.00000000E+00
  0.00000000E+00  0.00000000E+00  0.00000000E+00
  0.00000000E+00  0.00000000E+00  0.00000000E+00
  0.00000000E+00  0.00000000E+00  0.00000000E+00
  0.00000000E+00  0.00000000E+00  0.00000000E+00
  0.00000000E+00  0.00000000E+00  0.00000000E+00
  0.00000000E+00  0.00000000E+00  0.00000000E+00
  0.00000000E+00  0.00000000E+00  0.00000000E+00
  0.00000000E+00  0.00000000E+00  0.00000000E+00
  0.00000000E+00  0.00000000E+00  0.00000000E+00
  0.00000000E+00  0.00000000E+00  0.00000000E+00
  0.00000000E+00  0.00000000E+00  0.00000000E+00
  0.00000000E+00  0.00000000E+00  0.00000000E+00
  0.00000000E+00  0.00000000E+00  0.00000000E+00
  0.00000000E+00  0.00000000E+00  0.00000000E+00
  0.00000000E+00  0.00000000E+00  0.00000000E+00
  0.00000000E+00  0.00000000E+00  0.00000000E+00
  0.00000000E+00  0.00000000E+00  0.00000000E+00
  0.00000000E+00  0.00000000E+00  0.00000000E+00
  0.00000000E+00  0.00000000E+00  0.00000000E+00
  0.00000000E+00  0.00000000E+00  0.00000000E+00
  0.00000000E+00  0.00000000E+00  0.00000000E+00
  0.00000000E+00  0.00000000E+00  0.00000000E+00
  0.00000000E+00  0.00000000E+00  0.00000000E+00
  0.00000000E+00  0.00000000E+00  0.00000000E+00
  0.00000000E+00  0.00000000E+00  0.00000000E+00
  0.00000000E+00  0.00000000E+00  0.00000000E+00
  0.00000000E+00  0.00000000E+00  0.00000000E+00
  0.00000000E+00  0.00000000E+00  0.00000000E+00
  0.00000000E+00  0.00000000E+00  0.00000000E+00
  0.00000000E+00  0.00000000E+00  0.00000000E+00
  0.00000000E+00  0.00000000E+00  0.00000000E+00
  0.00000000E+00  0.00000000E+00  0.00000000E+00
  0.00000000E+00  0.00000000E+00  0.00000000E+00
  0.00000000E+00  0.00000000E+00  0.00000000E+00
  0.00000000E+00  0.00000000E+00  0.00000000E+00
  0.00000000E+00  0.00000000E+00  0.00000000E+00
  0.00000000E+00  0.00000000E+00  0.00000000E+00
  0.00000000E+00  0.00000000E+00  0.00000000E+00
  0.00000000E+00  0.00000000E+00  0.00000000E+00
  0.00000000E+00  0.00000000E+00  0.00000000E+00
  0.00000000E+00  0.00000000E+00  0.00000000E+00
  0.00000000E+00  0.00000000E+00  0.00000000E+00
  0.00000000E+00  0.00000000E+00  0.00000000E+00
  0.00000000E+00  0.00000000E+00  0.00000000E+00
  0.00000000E+00  0.00000000E+00  0.00000000E+00
  0.00000000E+00  0.00000000E+00  0.00000000E+00
  0.00000000E+00  0.00000000E+00  0.00000000E+00
  0.00000000E+00  0.00000000E+00  0.00000000E+00
  0.00000000E+00  0.00000000E+00  0.00000000E+00
  0.00000000E+00  0.00000000E+00  0.00000000E+00
  0.00000000E+00  0.00000000E+00  0.00000000E+00
  0.00000000E+00  0.00000000E+00  0.00000000E+00
  0.00000000E+00  0.00000000E+00  0.00000000E+00
  0.00000000E+00  0.00000000E+00  0.00000000E+00
  0.00000000E+00  0.00000000E+00  0.00000000E+00
  0.00000000E+00  0.00000000E+00  0.00000000E+00
  0.00000000E+00  0.00000000E+00  0.00000000E+00
  0.00000000E+00  0.00000000E+00  0.00000000E+00
  0.00000000E+00  0.00000000E+00  0.00000000E+00
  0.00000000E+00  0.00000000E+00  0.00000000E+00
  0.00000000E+00  0.00000000E+00  0.00000000E+00
  0.00000000E+00  0.00000000E+00  0.00000000E+00
  0.00000000E+00  0.00000000E+00  0.00000000E+00
  0.00000000E+00  0.00000000E+00  0.00000000E+00
  0.00000000E+00  0.00000000E+00  0.00000000E+00
  0.00000000E+00  0.00000000E+00  0.00000000E+00
  0.00000000E+00  0.00000000E+00  0.00000000E+00
  0.00000000E+00  0.00000000E+00  0.00000000E+00
  0.00000000E+00  0.00000000E+00  0.00000000E+00
  0.00000000E+00  0.00000000E+00  0.00000000E+00
  0.00000000E+00  0.00000000E+00  0.00000000E+00
  0.00000000E+00  0.00000000E+00  0.00000000E+00
  0.00000000E+00  0.00000000E+00  0.00000000E+00
  0.00000000E+00  0.00000000E+00  0.00000000E+00
  0.00000000E+00  0.00000000E+00  0.00000000E+00
  0.00000000E+00  0.00000000E+00  0.00000000E+00
  0.00000000E+00  0.00000000E+00  0.00000000E+00
  0.00000000E+00  0.00000000E+00  0.00000000E+00
  0.00000000E+00  0.00000000E+00  0.00000000E+00
  0.00000000E+00  0.00000000E+00  0.00000000E+00
  0.00000000E+00  0.00000000E+00  0.00000000E+00
  0.00000000E+00  0.00000000E+00  0.00000000E+00
  0.00000000E+00  0.00000000E+00  0.00000000E+00
  0.00000000E+00  0.00000000E+00  0.00000000E+00
  0.00000000E+00  0.00000000E+00  0.00000000E+00
  0.00000000E+00  0.00000000E+00  0.00000000E+00
  0.00000000E+00  0.00000000E+00  0.00000000E+00
  0.00000000E+00  0.00000000E+00  0.00000000E+00
  0.00000000E+00  0.00000000E+00  0.00000000E+00
  0.00000000E+00  0.00000000E+00  0.00000000E+00
  0.00000000E+00  0.00000000E+00  0.00000000E+00
  0.00000000E+00  0.00000000E+00  0.00000000E+00
  0.00000000E+00  0.00000000E+00  0.00000000E+00
  0.00000000E+00  0.00000000E+00  0.00000000E+00
  0.00000000E+00  0.00000000E+00  0.00000000E+00
  0.00000000E+00  0.00000000E+00  0.00000000E+00
  0.00000000E+00  0.00000000E+00  0.00000000E+00
  0.00000000E+00  0.00000000E+00  0.00000000E+00
  0.00000000E+00  0.00000000E+00  0.00000000E+00
  0.00000000E+00  0.00000000E+00  0.00000000E+00
  0.00000000E+00  0.00000000E+00  0.00000000E+00
  0.00000000E+00  0.00000000E+00  0.00000000E+00
  0.00000000E+00  0.00000000E+00  0.00000000E+00
  0.00000000E+00  0.00000000E+00  0.00000000E+00
  0.00000000E+00  0.00000000E+00  0.00000000E+00
  0.00000000E+00  0.00000000E+00  0.00000000E+00
  0.00000000E+00  0.00000000E+00  0.00000000E+00
  0.00000000E+00  0.00000000E+00  0.00000000E+00
  0.00000000E+00  0.00000000E+00  0.00000000E+00
  0.00000000E+00  0.00000000E+00  0.00000000E+00
  0.00000000E+00  0.00000000E+00  0.00000000E+00
  0.00000000E+00  0.00000000E+00  0.00000000E+00
  0.00000000E+00  0.00000000E+00  0.00000000E+00
  0.00000000E+00  0.00000000E+00  0.00000000E+00
  0.00000000E+00  0.00000000E+00  0.00000000E+00
  0.00000000E+00  0.00000000E+00  0.00000000E+00
  0.00000000E+00  0.00000000E+00  0.00000000E+00
  0.00000000E+00  0.00000000E+00  0.00000000E+00
  0.00000000E+00  0.00000000E+00  0.00000000E+00
  0.00000000E+00  0.00000000E+00  0.00000000E+00
  0.00000000E+00  0.00000000E+00  0.00000000E+00
  0.00000000E+00  0.00000000E+00  0.00000000E+00
  0.00000000E+00  0.00000000E+00  0.00000000E+00
  0.00000000E+00  0.00000000E+00  0.00000000E+00
  0.00000000E+00  0.00000000E+00  0.00000000E+00
  0.00000000E+00  0.00000000E+00  0.00000000E+00
  0.00000000E+00  0.00000000E+00  0.00000000E+00
  0.00000000E+00  0.00000000E+00  0.00000000E+00
  0.00000000E+00  0.00000000E+00  0.00000000E+00
  0.00000000E+00  0.00000000E+00  0.00000000E+00
  0.00000000E+00  0.00000000E+00  0.00000000E+00
  0.00000000E+00  0.00000000E+00  0.00000000E+00
  0.00000000E+00  0.00000000E+00  0.00000000E+00
  0.00000000E+00  0.00000000E+00  0.00000000E+00
  0.00000000E+00  0.00000000E+00  0.00000000E+00
  0.00000000E+00  0.00000000E+00  0.00000000E+00
  0.00000000E+00  0.00000000E+00  0.00000000E+00
  0.00000000E+00  0.00000000E+00  0.00000000E+00
  0.00000000E+00  0.00000000E+00  0.00000000E+00
  0.00000000E+00  0.00000000E+00  0.00000000E+00
  0.00000000E+00  0.00000000E+00  0.00000000E+00
  0.00000000E+00  0.00000000E+00  0.00000000E+00
