 C  N Ni                                
   1.00000000000000     
    12.4553732971919207    0.0000000000000000    0.0000000000000000
    -0.0000000000000004   12.7322628555216397    0.0000000000000000
     0.0000000000000003    0.0000000000000000   20.0000000000000000
   C    N    Ni
    54     4     1
Direct
  0.0522107763346091  0.0474694769390613  0.1583285141001347
  0.1527694742486968  0.1022757893326547  0.1583258925274886
  0.1521323392201389  0.2137190416511689  0.1582693023217326
  0.0522088849396710  0.2687951821431582  0.1582150467406403
  0.2536296992815583  0.0479979479121501  0.1583645498681970
  0.3537865027624320  0.1043528815838445  0.1584108859195003
  0.3527954641940894  0.2170802177536140  0.1583817433117437
  0.2514201425305401  0.2694597925793116  0.1583089716658089
  0.4538367241579539  0.0486912512990120  0.1584335371547792
  0.5522102639981705  0.1075655452657419  0.1584610622213495
  0.5522089051952832  0.2223029749885661  0.1584304237591493
  0.4511249294305340  0.2778708541854987  0.1583889470057300
  0.6505740429697898  0.0486865803258504  0.1584464495302062
  0.7506260875574666  0.1043418917462546  0.1584187358479130
  0.7516140805751726  0.2170726928506274  0.1583901498702458
  0.6532888693211889  0.2778658114430150  0.1583982004896917
  0.8507880743774172  0.0479880511384463  0.1583714879420582
  0.9516428744473870  0.1022739109965109  0.1583181484358626
  0.9522781881856680  0.2137172706439374  0.1582542544260181
  0.8529884934270946  0.2694553273679346  0.1583015938677463
  0.0521996015944075  0.3802467123197626  0.1581757932092378
  0.1506459936689616  0.4362895393650325  0.1581620848320935
  0.1506460171014281  0.5474688685721126  0.1581451595233407
  0.0521944956343312  0.6035213704510989  0.1581435112517534
  0.2496449811232300  0.3808275333805764  0.1582384300442434
  0.3475319512833922  0.4360574507274376  0.1582756418170056
  0.3475393867675768  0.5476960311673611  0.1582655580347317
  0.2496522000685043  0.6029113105865885  0.1582059998513743
  0.7568805090547773  0.4360626912655551  0.1582873712004874
  0.7568712584869745  0.5477001652592403  0.1582804954639635
  0.8547599022433922  0.3808261815789786  0.1582384866299975
  0.9537608560103376  0.4362934611150521  0.1581582888326974
  0.9537506690460004  0.5474736369408347  0.1581407032487940
  0.8547564936330746  0.6029207751911208  0.1582162018322410
  0.0522108979938184  0.7149667114676110  0.1582087996366613
  0.1521506984807399  0.7700339735283731  0.1582627685650869
  0.0522108921685873  0.9362672042686463  0.1583145948150737
  0.2514306047001632  0.7142816262117428  0.1582826953720844
  0.3527858351610731  0.7666627839944532  0.1583595605115883
  0.3537683529606321  0.8793970805042168  0.1583868645178829
  0.2536154319182926  0.9357476304530801  0.1583604514141357
  0.4511243947494178  0.7058857902249160  0.1583769817775608
  0.5522158577583440  0.7614641094464676  0.1583970061700299
  0.5522051975742033  0.8761830708488230  0.1584191506683907
  0.4538328554387603  0.9350188438906525  0.1584207636205306
  0.6533008290313067  0.7058844159770428  0.1583738122734767
  0.7516341568108157  0.7666616435359933  0.1583521343295634
  0.7506406154148555  0.8793943488192910  0.1583964128315004
  0.6505717293018686  0.9350168986782080  0.1584302953630755
  0.8529931117948484  0.7142850057030421  0.1582834776335491
  0.9522724508526929  0.7700432398687705  0.1582538465618520
  0.8507988358311225  0.9357440237724981  0.1583722491462581
  0.1527625257519725  0.8814653391192648  0.1583106785768797
  0.9516603299051649  0.8814732765587713  0.1583054300582177
  0.4459344477288981  0.3866038297223084  0.1583665990656069
  0.4459374010835376  0.5971642452683521  0.1583676666551665
  0.6584767503704668  0.3866026506853695  0.1583776588204801
  0.6584727816939552  0.5971641515766639  0.1583715732508643
  0.5522039726426893  0.4918898819252459  0.1583975495865145
 
  0.00000000E+00  0.00000000E+00  0.00000000E+00
  0.00000000E+00  0.00000000E+00  0.00000000E+00
  0.00000000E+00  0.00000000E+00  0.00000000E+00
  0.00000000E+00  0.00000000E+00  0.00000000E+00
  0.00000000E+00  0.00000000E+00  0.00000000E+00
  0.00000000E+00  0.00000000E+00  0.00000000E+00
  0.00000000E+00  0.00000000E+00  0.00000000E+00
  0.00000000E+00  0.00000000E+00  0.00000000E+00
  0.00000000E+00  0.00000000E+00  0.00000000E+00
  0.00000000E+00  0.00000000E+00  0.00000000E+00
  0.00000000E+00  0.00000000E+00  0.00000000E+00
  0.00000000E+00  0.00000000E+00  0.00000000E+00
  0.00000000E+00  0.00000000E+00  0.00000000E+00
  0.00000000E+00  0.00000000E+00  0.00000000E+00
  0.00000000E+00  0.00000000E+00  0.00000000E+00
  0.00000000E+00  0.00000000E+00  0.00000000E+00
  0.00000000E+00  0.00000000E+00  0.00000000E+00
  0.00000000E+00  0.00000000E+00  0.00000000E+00
  0.00000000E+00  0.00000000E+00  0.00000000E+00
  0.00000000E+00  0.00000000E+00  0.00000000E+00
  0.00000000E+00  0.00000000E+00  0.00000000E+00
  0.00000000E+00  0.00000000E+00  0.00000000E+00
  0.00000000E+00  0.00000000E+00  0.00000000E+00
  0.00000000E+00  0.00000000E+00  0.00000000E+00
  0.00000000E+00  0.00000000E+00  0.00000000E+00
  0.00000000E+00  0.00000000E+00  0.00000000E+00
  0.00000000E+00  0.00000000E+00  0.00000000E+00
  0.00000000E+00  0.00000000E+00  0.00000000E+00
  0.00000000E+00  0.00000000E+00  0.00000000E+00
  0.00000000E+00  0.00000000E+00  0.00000000E+00
  0.00000000E+00  0.00000000E+00  0.00000000E+00
  0.00000000E+00  0.00000000E+00  0.00000000E+00
  0.00000000E+00  0.00000000E+00  0.00000000E+00
  0.00000000E+00  0.00000000E+00  0.00000000E+00
  0.00000000E+00  0.00000000E+00  0.00000000E+00
  0.00000000E+00  0.00000000E+00  0.00000000E+00
  0.00000000E+00  0.00000000E+00  0.00000000E+00
  0.00000000E+00  0.00000000E+00  0.00000000E+00
  0.00000000E+00  0.00000000E+00  0.00000000E+00
  0.00000000E+00  0.00000000E+00  0.00000000E+00
  0.00000000E+00  0.00000000E+00  0.00000000E+00
  0.00000000E+00  0.00000000E+00  0.00000000E+00
  0.00000000E+00  0.00000000E+00  0.00000000E+00
  0.00000000E+00  0.00000000E+00  0.00000000E+00
  0.00000000E+00  0.00000000E+00  0.00000000E+00
  0.00000000E+00  0.00000000E+00  0.00000000E+00
  0.00000000E+00  0.00000000E+00  0.00000000E+00
  0.00000000E+00  0.00000000E+00  0.00000000E+00
  0.00000000E+00  0.00000000E+00  0.00000000E+00
  0.00000000E+00  0.00000000E+00  0.00000000E+00
  0.00000000E+00  0.00000000E+00  0.00000000E+00
  0.00000000E+00  0.00000000E+00  0.00000000E+00
  0.00000000E+00  0.00000000E+00  0.00000000E+00
  0.00000000E+00  0.00000000E+00  0.00000000E+00
  0.00000000E+00  0.00000000E+00  0.00000000E+00
  0.00000000E+00  0.00000000E+00  0.00000000E+00
  0.00000000E+00  0.00000000E+00  0.00000000E+00
  0.00000000E+00  0.00000000E+00  0.00000000E+00
  0.00000000E+00  0.00000000E+00  0.00000000E+00
