 C  N Co                                
   1.00000000000000     
    12.4736272811501330    0.0000000000000000    0.0000000000000000
    -0.0000000000000004   12.7563993229090755    0.0000000000000000
     0.0000000000000003    0.0000000000000000   19.8713392819153718
   C    N    Co
    55     3     1
Direct
  0.0521658658216860  0.0477057285058002  0.1593962559160691
  0.1525567543696066  0.1023337603448698  0.1593771094656425
  0.1521165144663273  0.2137759118186183  0.1593054388032337
  0.0522551509301715  0.2686400215140952  0.1592419322586059
  0.2532636905295153  0.0477386202216274  0.1594126897734562
  0.3533651986692779  0.1037221466974639  0.1594377835865733
  0.3529236386888030  0.2164717702886275  0.1593738296688315
  0.2515882670575327  0.2695969801304986  0.1593032287204382
  0.4534510125171509  0.0482999252829409  0.1594580028871292
  0.5528430242094350  0.1066808185302599  0.1594443268535065
  0.5528667089573297  0.2200605635777649  0.1594243819745532
  0.4517626958023844  0.2757518149990312  0.1593859453925236
  0.6513831864273433  0.0479312517734619  0.1594532684771942
  0.7510771922988605  0.1037490188002571  0.1594194760658212
  0.7519674585457707  0.2166377419575434  0.1593698618161775
  0.6539738042730394  0.2765562871076374  0.1593876302660473
  0.8511490150025622  0.0479163329580250  0.1594006798950633
  0.9518380298423965  0.1023335563330845  0.1593720858962148
  0.9523988922592529  0.2136496015985865  0.1592999768512479
  0.8531610379540331  0.2692687851070978  0.1593039714280934
  0.0517356954249243  0.3804061075310238  0.1591916180249642
  0.1499261199026079  0.4362007503125824  0.1591866655482771
  0.1500639366082467  0.5476410774871870  0.1591818650248757
  0.0520933044708733  0.6033811511933476  0.1592036769766710
  0.2488474542883938  0.3809570639354699  0.1592416994173811
  0.3463312890582916  0.4370703174266640  0.1592668599827596
  0.3458070186091414  0.5492371180487483  0.1592743399153742
  0.2486406504830283  0.6040785743667231  0.1592450099028868
  0.7566032659418552  0.4355799152214010  0.1593051772370806
  0.7571921534426619  0.5484737871209886  0.1592881404696163
  0.8544739543181428  0.3807363486344706  0.1592591525838919
  0.9535425975611173  0.4363155643339934  0.1591806363924652
  0.9538217959805901  0.5474296736263866  0.1591781649062571
  0.8552008277467473  0.6030664669446617  0.1592504926944001
  0.0521476205628639  0.7151792503939909  0.1592604856563840
  0.1517345790102884  0.7705416612381969  0.1593088709904516
  0.0521575729593910  0.9364547180620366  0.1593969006825088
  0.2508932347001046  0.7150490193881419  0.1593089196693969
  0.3524248881826360  0.7670449888781271  0.1593771953309027
  0.3534133811397480  0.8797123160102683  0.1594304520673841
  0.2533029115384773  0.9358602830734321  0.1594124689741716
  0.4502243924129498  0.7062704931817064  0.1593910935378723
  0.5522568083505111  0.7615034275932567  0.1594548134894771
  0.5522138862805913  0.8756521587363296  0.1594890348361786
  0.4534791229094039  0.9348340948933928  0.1594740025904245
  0.6546574480768407  0.7068117333160245  0.1593977231397322
  0.7523896784462295  0.7672132339925382  0.1593680922822711
  0.7512683522612519  0.8797865730689454  0.1594275026384164
  0.6512187556104572  0.9346505408930531  0.1594747526855338
  0.8533297328893923  0.7144481570616296  0.1593056729458633
  0.9525322370038926  0.7702444203631305  0.1593046943446031
  0.8512124201748420  0.9359685312852923  0.1594017803579322
  0.1524060585760988  0.8817521836573518  0.1593708667790897
  0.9519181866099461  0.8816112682466275  0.1593636383290467
  0.4475479330595780  0.3878343370084679  0.1593306995531231
  0.4443432327730693  0.5973672591325406  0.1593486968340935
  0.6582606885690934  0.3860023864441288  0.1593746729495384
  0.6600361307373193  0.5985680092559141  0.1593600973720453
  0.5524236346953990  0.4908243972114523  0.1594255563621549
 
  0.00000000E+00  0.00000000E+00  0.00000000E+00
  0.00000000E+00  0.00000000E+00  0.00000000E+00
  0.00000000E+00  0.00000000E+00  0.00000000E+00
  0.00000000E+00  0.00000000E+00  0.00000000E+00
  0.00000000E+00  0.00000000E+00  0.00000000E+00
  0.00000000E+00  0.00000000E+00  0.00000000E+00
  0.00000000E+00  0.00000000E+00  0.00000000E+00
  0.00000000E+00  0.00000000E+00  0.00000000E+00
  0.00000000E+00  0.00000000E+00  0.00000000E+00
  0.00000000E+00  0.00000000E+00  0.00000000E+00
  0.00000000E+00  0.00000000E+00  0.00000000E+00
  0.00000000E+00  0.00000000E+00  0.00000000E+00
  0.00000000E+00  0.00000000E+00  0.00000000E+00
  0.00000000E+00  0.00000000E+00  0.00000000E+00
  0.00000000E+00  0.00000000E+00  0.00000000E+00
  0.00000000E+00  0.00000000E+00  0.00000000E+00
  0.00000000E+00  0.00000000E+00  0.00000000E+00
  0.00000000E+00  0.00000000E+00  0.00000000E+00
  0.00000000E+00  0.00000000E+00  0.00000000E+00
  0.00000000E+00  0.00000000E+00  0.00000000E+00
  0.00000000E+00  0.00000000E+00  0.00000000E+00
  0.00000000E+00  0.00000000E+00  0.00000000E+00
  0.00000000E+00  0.00000000E+00  0.00000000E+00
  0.00000000E+00  0.00000000E+00  0.00000000E+00
  0.00000000E+00  0.00000000E+00  0.00000000E+00
  0.00000000E+00  0.00000000E+00  0.00000000E+00
  0.00000000E+00  0.00000000E+00  0.00000000E+00
  0.00000000E+00  0.00000000E+00  0.00000000E+00
  0.00000000E+00  0.00000000E+00  0.00000000E+00
  0.00000000E+00  0.00000000E+00  0.00000000E+00
  0.00000000E+00  0.00000000E+00  0.00000000E+00
  0.00000000E+00  0.00000000E+00  0.00000000E+00
  0.00000000E+00  0.00000000E+00  0.00000000E+00
  0.00000000E+00  0.00000000E+00  0.00000000E+00
  0.00000000E+00  0.00000000E+00  0.00000000E+00
  0.00000000E+00  0.00000000E+00  0.00000000E+00
  0.00000000E+00  0.00000000E+00  0.00000000E+00
  0.00000000E+00  0.00000000E+00  0.00000000E+00
  0.00000000E+00  0.00000000E+00  0.00000000E+00
  0.00000000E+00  0.00000000E+00  0.00000000E+00
  0.00000000E+00  0.00000000E+00  0.00000000E+00
  0.00000000E+00  0.00000000E+00  0.00000000E+00
  0.00000000E+00  0.00000000E+00  0.00000000E+00
  0.00000000E+00  0.00000000E+00  0.00000000E+00
  0.00000000E+00  0.00000000E+00  0.00000000E+00
  0.00000000E+00  0.00000000E+00  0.00000000E+00
  0.00000000E+00  0.00000000E+00  0.00000000E+00
  0.00000000E+00  0.00000000E+00  0.00000000E+00
  0.00000000E+00  0.00000000E+00  0.00000000E+00
  0.00000000E+00  0.00000000E+00  0.00000000E+00
  0.00000000E+00  0.00000000E+00  0.00000000E+00
  0.00000000E+00  0.00000000E+00  0.00000000E+00
  0.00000000E+00  0.00000000E+00  0.00000000E+00
  0.00000000E+00  0.00000000E+00  0.00000000E+00
  0.00000000E+00  0.00000000E+00  0.00000000E+00
  0.00000000E+00  0.00000000E+00  0.00000000E+00
  0.00000000E+00  0.00000000E+00  0.00000000E+00
  0.00000000E+00  0.00000000E+00  0.00000000E+00
  0.00000000E+00  0.00000000E+00  0.00000000E+00
