 C  N Ni                                
   1.00000000000000     
     8.3910662849667634    0.0145678353140965    0.0000147924216194
     0.0145403810503686    8.3909479259449853   -0.0000513364315785
     0.0000358296430094   -0.0001222403013861   19.8437584224722769
   C    N    Ni
    21     3     1
Direct
  0.4984868473794687  0.0833504810879306  0.1543005007673348
  0.3522632586902695  0.1663020030293500  0.1542866865943532
  0.6422599151030762  0.1676385169664979  0.1542523907850393
  0.7954348558572240  0.9163721300601813  0.1540199118367110
  0.7938628286211591  0.0841312670774841  0.1540275161299893
  0.9158679019043567  0.2061217980133917  0.1540208296248895
  0.8323491782910788  0.3577119258813789  0.1542243595224455
  0.2041414958935184  0.0841200872318512  0.1540423405036542
  0.0836008735611993  0.2045606105811978  0.1540290353733285
  0.1709875990318791  0.3546562528054347  0.1542582492604538
  0.0892046997823362  0.5012138745939144  0.1542762424881970
  0.1703593134912202  0.6467618426943711  0.1542601052652821
  0.3532247967928192  0.8296265004052162  0.1542774435809437
  0.2038314012004653  0.9148378058669788  0.1540376638018166
  0.0851649224298627  0.7961473659326137  0.1540218819456414
  0.6453246551970949  0.8290027786559352  0.1542468440063454
  0.8336996842529061  0.6477025442867822  0.1542303323864087
  0.9158540310327905  0.7958634947950849  0.1540094480561522
  0.4987749271075337  0.9107833052293148  0.1543016027254442
  0.9166424537601439  0.5015192414988674  0.1542528255217185
  0.6618942551403553  0.3380844313274599  0.1543812941906761
  0.3335799732361626  0.3320237636291725  0.1543988022109050
  0.3339335037875791  0.6660425274605909  0.1544083275226787
  0.6679566793366335  0.6663958525107933  0.1543555593354994
  0.5016495090499837  0.4983425159663841  0.1544928163848713
 
  0.00000000E+00  0.00000000E+00  0.00000000E+00
  0.00000000E+00  0.00000000E+00  0.00000000E+00
  0.00000000E+00  0.00000000E+00  0.00000000E+00
  0.00000000E+00  0.00000000E+00  0.00000000E+00
  0.00000000E+00  0.00000000E+00  0.00000000E+00
  0.00000000E+00  0.00000000E+00  0.00000000E+00
  0.00000000E+00  0.00000000E+00  0.00000000E+00
  0.00000000E+00  0.00000000E+00  0.00000000E+00
  0.00000000E+00  0.00000000E+00  0.00000000E+00
  0.00000000E+00  0.00000000E+00  0.00000000E+00
  0.00000000E+00  0.00000000E+00  0.00000000E+00
  0.00000000E+00  0.00000000E+00  0.00000000E+00
  0.00000000E+00  0.00000000E+00  0.00000000E+00
  0.00000000E+00  0.00000000E+00  0.00000000E+00
  0.00000000E+00  0.00000000E+00  0.00000000E+00
  0.00000000E+00  0.00000000E+00  0.00000000E+00
  0.00000000E+00  0.00000000E+00  0.00000000E+00
  0.00000000E+00  0.00000000E+00  0.00000000E+00
  0.00000000E+00  0.00000000E+00  0.00000000E+00
  0.00000000E+00  0.00000000E+00  0.00000000E+00
  0.00000000E+00  0.00000000E+00  0.00000000E+00
  0.00000000E+00  0.00000000E+00  0.00000000E+00
  0.00000000E+00  0.00000000E+00  0.00000000E+00
  0.00000000E+00  0.00000000E+00  0.00000000E+00
  0.00000000E+00  0.00000000E+00  0.00000000E+00
