 C  N  H Ni                             
   1.00000000000000     
    11.1305781780733462  -19.2798653468112313    0.0000000000000000
    11.1305781780733462   19.2798653468112313    0.0000000000000000
     0.0000000000000000    0.0000000000000000   16.0000000000000000
   C    N    H    Ni
   194     8    16     1
Direct
  0.0000012225971271  0.0000048677233739  0.1126480579354256
  0.0370623054217935  0.0740910615491399  0.1127290486324367
  0.0000149694881146  0.1111227457232379  0.1126719982404128
  0.0370717093343515  0.1852040789751445  0.1127310039913440
  0.0000233475934083  0.2222362805099288  0.1126593442120184
  0.0370767340802574  0.2963169890091525  0.1126356994898476
  0.0000213858627389  0.3333430189927716  0.1126304883802549
  0.0370795587324394  0.4074234596981079  0.1125320916158917
  0.0000081128808617  0.4444419982710111  0.1126618839228657
  0.0370547951651671  0.5185154957479929  0.1126340720747378
  0.9999923330513768  0.5555449185916518  0.1127221713040966
  0.0370312837814276  0.6296184865822020  0.1126911081742507
  0.9999766068190029  0.6666487806270895  0.1126696679131874
  0.0370219627432327  0.7407280532791458  0.1126059049672997
  0.9999754783837627  0.7777639058525726  0.1125900777425659
  0.0370269294860637  0.8518458561787798  0.1125680073305104
  0.9999862510892179  0.8888844860143116  0.1125926346122947
  0.0370427374936245  0.9629701009018977  0.1126440706000910
  0.1111272512997545  0.0000306421813847  0.1127416573542775
  0.1481847557534170  0.0741143023714843  0.1129053232434026
  0.1111453058580255  0.1111472408123899  0.1128956478519658
  0.1481983954966697  0.1852233776825489  0.1130063857500119
  0.1111560404740685  0.2222533659859892  0.1128879448883695
  0.1482061456242721  0.2963321075353277  0.1128351042080237
  0.1111641185137338  0.3333697807990504  0.1125910282063138
  0.1482092436372055  0.4074378797316950  0.1122476189923843
  0.1111657248733467  0.4444615137015817  0.1121854123255378
  0.1482067219871099  0.5185189066618311  0.1119668886737611
  0.1111438703072932  0.5555344417259664  0.1123804093889851
  0.1481696190800521  0.6296105840543167  0.1125043345452007
  0.1111159429002314  0.6666499810979742  0.1126484141117992
  0.1481484318272530  0.7407285908579361  0.1126189981799791
  0.1111026387161413  0.7777688193648301  0.1125869070695477
  0.1481452819327508  0.8518506504248122  0.1125750340080024
  0.1111085607826262  0.8888955496802803  0.1125860347203473
  0.1481579137726582  0.9629823310562170  0.1126995114731325
  0.2222361986804834  0.0000391043539713  0.1127722365465514
  0.2592741268609758  0.0741233101025686  0.1129348046562733
  0.2222522343742521  0.1111666693600021  0.1130203263088216
  0.2592892744569487  0.1852315689203255  0.1131762324319156
  0.2222632101054502  0.2222656346685129  0.1131712718977183
  0.2592866154862558  0.2963260147601170  0.1132491437815028
  0.2222670318753783  0.3333691014841179  0.1129783536824879
  0.2592821213516168  0.4074271913709602  0.1127805906389083
  0.2222656151386059  0.4444675287002749  0.1122333940062129
  0.2592848365390909  0.5185139677569934  0.1120110780270278
  0.2222586878051997  0.5555359667353710  0.1117582688711884
  0.2592782555652097  0.6295798882921168  0.1119754796223092
  0.2222489895437141  0.6666274460241784  0.1123392073447510
  0.2592663529790363  0.7407106556914791  0.1125488231419504
  0.2222265625861996  0.7777615022917777  0.1126064507028843
  0.2592611752291404  0.8518455338574620  0.1126006055601915
  0.2222237808923822  0.8888947140045348  0.1126015634790943
  0.2592627919018793  0.9629805614250482  0.1126823144541967
  0.3333373435439495  0.0000224904627728  0.1126955036912940
  0.3703683363699034  0.0741095856629979  0.1128136745481649
  0.3333414065839844  0.1111650311687244  0.1129512673860446
  0.3703744346627114  0.1852353496349004  0.1130565115928486
  0.3333401349118734  0.2222599116485847  0.1132324900046727
  0.3703795803386224  0.2963222237374196  0.1134132806096882
  0.3333463779931167  0.3333554406444488  0.1134878469487598
  0.3703750435724876  0.4074170542554914  0.1135833103506485
  0.3333408291286978  0.4444526559553539  0.1132106268837967
  0.3703703393182395  0.5185111029371723  0.1130944515540402
  0.3333313439208021  0.5555360464963761  0.1124751922219037
  0.3703728770194229  0.6295850192152342  0.1125162999078835
  0.3333334697525927  0.6666081373922563  0.1122958539983513
  0.3703668867621647  0.7406837413911604  0.1125891934905670
  0.3333417006015035  0.7777476982430748  0.1125879801208194
  0.3703703355098618  0.8518311181176804  0.1126151963903339
  0.3333354904513343  0.8888835672431258  0.1125948499402035
  0.3703681117890802  0.9629677786550166  0.1126151260610864
  0.4444410322384688  0.0000051924778616  0.1126044923199444
  0.4814709516344507  0.0740885513283996  0.1126500484205981
  0.4444419988795208  0.1111469603817857  0.1127578329789555
  0.4814699480306819  0.1852307675293732  0.1127441774325419
  0.4444374299995658  0.2222720041777734  0.1128928506193941
  0.4814835501132337  0.2963345129305904  0.1128675695645944
  0.4444434136184310  0.3333536224415277  0.1132759411391781
  0.4814732850765971  0.4074072505007800  0.1134790357665632
  0.4444382954125807  0.4444422012023736  0.1137440509043229
  0.4814698367022732  0.5185042737310711  0.1137446540337218
  0.4444369446121986  0.5555383602862276  0.1134690313504340
  0.4814714099240042  0.6295947843117198  0.1132903295929453
  0.4444288610528520  0.6666118617118238  0.1129399548845435
  0.4814740024142534  0.7406776091478688  0.1129509165912894
  0.4444428763949987  0.7777249115523238  0.1127865331630740
  0.4814717191368394  0.8518100814456462  0.1127537388362266
  0.4444428032733772  0.8888671332796705  0.1126363752011109
  0.4814739907410054  0.9629517171949504  0.1125977311120927
  0.5555457041826327  0.9999884274382986  0.1126069433750791
  0.5925781686548997  0.0740723014050131  0.1125990756398223
  0.5555434195057470  0.1111238820084550  0.1126158680508456
  0.5925718625747683  0.1852088872732101  0.1125465075875588
  0.5555464085361758  0.2222725870133380  0.1124935873792286
  0.5925799701068469  0.2963423810409477  0.1121476100714925
  0.5555350021585691  0.3333580130720331  0.1124335174067276
  0.5925747537388290  0.4074076988665149  0.1125532833467898
  0.5555391138113662  0.4444343195882641  0.1131798988980026
  0.5925685855589656  0.5184957847578868  0.1133575834145342
  0.5555360733857659  0.5555319422501108  0.1136474584621666
  0.5925655676006438  0.6295929954657542  0.1135194335495443
  0.5555322524243477  0.6666267815261411  0.1134065093791667
  0.5925741901140880  0.7406879303572627  0.1132043028252768
  0.5555413133257462  0.7777144449212854  0.1130654998441034
  0.5925735948461252  0.8517899920400114  0.1129455742241225
  0.5555462208550355  0.8888481500906353  0.1127927301713192
  0.5925779860416671  0.9629339767764464  0.1126781438290963
  0.6666527021675638  0.9999757194616353  0.1126657767887305
  0.7036920727987175  0.0740622725615346  0.1126017884346973
  0.6666533003440258  0.1111103334021816  0.1126010170229468
  0.7036863189849315  0.1851933499729764  0.1125949119152404
  0.6666464194704010  0.2222461004815723  0.1124868396073849
  0.7036608817088925  0.2963278863019606  0.1122396052668372
  0.6666316085571684  0.3333681240267357  0.1118704081005456
  0.7036560302835182  0.4074107825504475  0.1118544736208150
  0.6666286936769179  0.4444317336592970  0.1122349473901526
  0.7036479994620165  0.5184803980234718  0.1125766491510105
  0.6666280548569442  0.5555227026904397  0.1130413494574366
  0.7036473170594832  0.6295835507125928  0.1131456509117579
  0.6666269987179315  0.6666261356635799  0.1133098076937855
  0.7036538163639862  0.7406879728528293  0.1131560679149059
  0.6666262729098321  0.7777188105771693  0.1131317986285658
  0.7036640299729162  0.8517832573744777  0.1129810933739234
  0.6666430473971878  0.8888320051222656  0.1129120947460797
  0.7036810589821145  0.9629190837864556  0.1127547440182974
  0.7777606453206134  0.9999751309425664  0.1126795006515396
  0.8148082461544827  0.0740603824309518  0.1125850062946209
  0.7777692899702103  0.1111046165650632  0.1125789303482286
  0.8148108227056682  0.1851859629958334  0.1126014699388849
  0.7777645584580632  0.2222252151785336  0.1126185566076486
  0.8147952308705563  0.2963054694416044  0.1126491067274373
  0.7777399345601659  0.3333445072795609  0.1124773152864376
  0.8147662249912316  0.4074169156594107  0.1124205469069915
  0.7777045832896096  0.4444305444974481  0.1121025381758942
  0.8147466538847657  0.5184859808928685  0.1123973405323933
  0.7777069020165642  0.5555126303978341  0.1125585953921914
  0.8147528261420508  0.6295852407965675  0.1127784820358633
  0.7777120351994381  0.6666223689347410  0.1129654148426380
  0.8147594339335271  0.7406991039448977  0.1129211208910313
  0.7777163299915817  0.7777289706349525  0.1129926629744480
  0.8147707046193408  0.8518045095769391  0.1128718695158629
  0.7777332487632022  0.8888387086866537  0.1128705754010674
  0.8147910597293390  0.9629253960427899  0.1127234655054420
  0.8888745623830548  0.9999850793538905  0.1126357048825561
  0.9259301027092403  0.0740704130729732  0.1125978716875108
  0.8888895372603725  0.1111085227178347  0.1125737368022391
  0.9259403497231911  0.1851911651017399  0.1126017159238669
  0.8888923028448095  0.2222260614065496  0.1126185029925362
  0.9259353988163486  0.2963033403984772  0.1126719712599795
  0.8888795478219307  0.3333344063144062  0.1126965559640502
  0.9259178029886692  0.4074076902628875  0.1127272655060141
  0.8888550178684368  0.4444355213933744  0.1126674275000314
  0.9259037388065414  0.5185106078756822  0.1127043286914157
  0.8888334529122678  0.5555284541374526  0.1126320572529740
  0.9258905284307328  0.6296072718391061  0.1126878360526058
  0.8888375004260979  0.6666362406663586  0.1127095534412005
  0.9258909844479251  0.7407167412802500  0.1126745391255567
  0.8888439158620590  0.7777486188859523  0.1127355789843179
  0.9259023913306743  0.8518317123944131  0.1126639801898646
  0.8888553097706061  0.8888633131488832  0.1127122197395476
  0.9259160014163148  0.9629487394193259  0.1126430049753103
  0.2672437140632754  0.1339541835408173  0.3758216680192262
  0.3364750176138411  0.1873539132412456  0.3686370087907748
  0.3492935102498835  0.2557528204108905  0.3630958402287238
  0.2942631210755171  0.2702242827701217  0.3639956710150038
  0.2249372073136220  0.2167465613880133  0.3707202572671230
  0.2121742720048610  0.1484717257996411  0.3769498500121127
  0.3260342008843522  0.3457061586606754  0.3584665316638505
  0.4135105187547614  0.3227636014260070  0.3575051329917461
  0.3183923378966934  0.4458513309023411  0.3515299535973296
  0.3953240143498872  0.5601271475329997  0.3530878055533982
  0.2781499140394703  0.4813258812015856  0.3456690726117701
  0.3265301159038740  0.5532234439899248  0.3471003966639242
  0.3047286372859531  0.6024269749311010  0.3423600420274465
  0.2333132495734184  0.5777492721353793  0.3354264126969809
  0.1849069226546422  0.5057783708683858  0.3334595799035712
  0.2066471719199578  0.4566319424714670  0.3387575888307448
  0.5335861880946570  0.3895801304536672  0.3517501162377584
  0.6104942356749661  0.5037795682257760  0.3568472924655203
  0.6245157910128171  0.3478070512654645  0.3387750869064580
  0.6961231354932884  0.3727439670715836  0.3347280352049659
  0.7445531121707717  0.4446209747235505  0.3391617774113982
  0.7226037060769404  0.4934418117957883  0.3473433235088771
  0.6509027066438500  0.4685046737541585  0.3507592759991771
  0.6025205067697755  0.3966747769165702  0.3468403725371576
  0.6027373110323497  0.6038533887446059  0.3638906931974794
  0.5153304649697100  0.6268501071104173  0.3607991965091717
  0.6345507212090032  0.6794007115071377  0.3677476630375016
  0.7039773060286418  0.7330071749891885  0.3720710866707462
  0.7169207883081316  0.8014911184074370  0.3736890725282005
  0.6619023857879514  0.8160452078063143  0.3708637540194217
  0.5925445608618617  0.7624786410701009  0.3666762983226596
  0.5795744742398898  0.6939095229587606  0.3653152430871360
  0.3980325691691034  0.3761824904892470  0.3563999014384373
  0.2887267987168335  0.3771703173376724  0.3546611503065953
  0.3889734990070992  0.4945808811149332  0.3546783016791575
  0.4756881512080414  0.3282356362630244  0.3534408682590494
  0.5398803040604133  0.4550397992521431  0.3562397918904902
  0.6400812298839178  0.5723807168908719  0.3617507211613260
  0.5307735460959400  0.5733989398148347  0.3604809702075094
  0.4531814433359240  0.6214230275162904  0.3566264870129651
  0.2553780916142544  0.0801110803767222  0.3811543663373348
  0.3791309752683257  0.1763972476730948  0.3680444044042059
  0.1826523692619670  0.2282464830768839  0.3718163211153335
  0.1588624511705345  0.1055703881314676  0.3832535291749760
  0.3423071200180600  0.6579112422428921  0.3436329916045756
  0.2145000811828266  0.6145852313259550  0.3308404816840179
  0.1296736472532344  0.4884322057411714  0.3271134365533565
  0.1695129931757351  0.4010463775121190  0.3369617074433973
  0.5869630811848444  0.2924079951331714  0.3350235484960368
  0.7150881139422964  0.3362191113606490  0.3273784892288530
  0.7999928110594036  0.4621910237044798  0.3355668485045167
  0.7597315438439497  0.5489849494508218  0.3505407892799565
  0.7462261383051012  0.7214788606498684  0.3741637206988658
  0.7703639606205211  0.8445667869525614  0.3771924104901316
  0.6739401597256149  0.8700863419359322  0.3720321141428691
  0.5499359103651340  0.7734689267787901  0.3644690953854611
  0.4644168865852512  0.4748028504589876  0.3568135019628806
 
  0.00000000E+00  0.00000000E+00  0.00000000E+00
  0.00000000E+00  0.00000000E+00  0.00000000E+00
  0.00000000E+00  0.00000000E+00  0.00000000E+00
  0.00000000E+00  0.00000000E+00  0.00000000E+00
  0.00000000E+00  0.00000000E+00  0.00000000E+00
  0.00000000E+00  0.00000000E+00  0.00000000E+00
  0.00000000E+00  0.00000000E+00  0.00000000E+00
  0.00000000E+00  0.00000000E+00  0.00000000E+00
  0.00000000E+00  0.00000000E+00  0.00000000E+00
  0.00000000E+00  0.00000000E+00  0.00000000E+00
  0.00000000E+00  0.00000000E+00  0.00000000E+00
  0.00000000E+00  0.00000000E+00  0.00000000E+00
  0.00000000E+00  0.00000000E+00  0.00000000E+00
  0.00000000E+00  0.00000000E+00  0.00000000E+00
  0.00000000E+00  0.00000000E+00  0.00000000E+00
  0.00000000E+00  0.00000000E+00  0.00000000E+00
  0.00000000E+00  0.00000000E+00  0.00000000E+00
  0.00000000E+00  0.00000000E+00  0.00000000E+00
  0.00000000E+00  0.00000000E+00  0.00000000E+00
  0.00000000E+00  0.00000000E+00  0.00000000E+00
  0.00000000E+00  0.00000000E+00  0.00000000E+00
  0.00000000E+00  0.00000000E+00  0.00000000E+00
  0.00000000E+00  0.00000000E+00  0.00000000E+00
  0.00000000E+00  0.00000000E+00  0.00000000E+00
  0.00000000E+00  0.00000000E+00  0.00000000E+00
  0.00000000E+00  0.00000000E+00  0.00000000E+00
  0.00000000E+00  0.00000000E+00  0.00000000E+00
  0.00000000E+00  0.00000000E+00  0.00000000E+00
  0.00000000E+00  0.00000000E+00  0.00000000E+00
  0.00000000E+00  0.00000000E+00  0.00000000E+00
  0.00000000E+00  0.00000000E+00  0.00000000E+00
  0.00000000E+00  0.00000000E+00  0.00000000E+00
  0.00000000E+00  0.00000000E+00  0.00000000E+00
  0.00000000E+00  0.00000000E+00  0.00000000E+00
  0.00000000E+00  0.00000000E+00  0.00000000E+00
  0.00000000E+00  0.00000000E+00  0.00000000E+00
  0.00000000E+00  0.00000000E+00  0.00000000E+00
  0.00000000E+00  0.00000000E+00  0.00000000E+00
  0.00000000E+00  0.00000000E+00  0.00000000E+00
  0.00000000E+00  0.00000000E+00  0.00000000E+00
  0.00000000E+00  0.00000000E+00  0.00000000E+00
  0.00000000E+00  0.00000000E+00  0.00000000E+00
  0.00000000E+00  0.00000000E+00  0.00000000E+00
  0.00000000E+00  0.00000000E+00  0.00000000E+00
  0.00000000E+00  0.00000000E+00  0.00000000E+00
  0.00000000E+00  0.00000000E+00  0.00000000E+00
  0.00000000E+00  0.00000000E+00  0.00000000E+00
  0.00000000E+00  0.00000000E+00  0.00000000E+00
  0.00000000E+00  0.00000000E+00  0.00000000E+00
  0.00000000E+00  0.00000000E+00  0.00000000E+00
  0.00000000E+00  0.00000000E+00  0.00000000E+00
  0.00000000E+00  0.00000000E+00  0.00000000E+00
  0.00000000E+00  0.00000000E+00  0.00000000E+00
  0.00000000E+00  0.00000000E+00  0.00000000E+00
  0.00000000E+00  0.00000000E+00  0.00000000E+00
  0.00000000E+00  0.00000000E+00  0.00000000E+00
  0.00000000E+00  0.00000000E+00  0.00000000E+00
  0.00000000E+00  0.00000000E+00  0.00000000E+00
  0.00000000E+00  0.00000000E+00  0.00000000E+00
  0.00000000E+00  0.00000000E+00  0.00000000E+00
  0.00000000E+00  0.00000000E+00  0.00000000E+00
  0.00000000E+00  0.00000000E+00  0.00000000E+00
  0.00000000E+00  0.00000000E+00  0.00000000E+00
  0.00000000E+00  0.00000000E+00  0.00000000E+00
  0.00000000E+00  0.00000000E+00  0.00000000E+00
  0.00000000E+00  0.00000000E+00  0.00000000E+00
  0.00000000E+00  0.00000000E+00  0.00000000E+00
  0.00000000E+00  0.00000000E+00  0.00000000E+00
  0.00000000E+00  0.00000000E+00  0.00000000E+00
  0.00000000E+00  0.00000000E+00  0.00000000E+00
  0.00000000E+00  0.00000000E+00  0.00000000E+00
  0.00000000E+00  0.00000000E+00  0.00000000E+00
  0.00000000E+00  0.00000000E+00  0.00000000E+00
  0.00000000E+00  0.00000000E+00  0.00000000E+00
  0.00000000E+00  0.00000000E+00  0.00000000E+00
  0.00000000E+00  0.00000000E+00  0.00000000E+00
  0.00000000E+00  0.00000000E+00  0.00000000E+00
  0.00000000E+00  0.00000000E+00  0.00000000E+00
  0.00000000E+00  0.00000000E+00  0.00000000E+00
  0.00000000E+00  0.00000000E+00  0.00000000E+00
  0.00000000E+00  0.00000000E+00  0.00000000E+00
  0.00000000E+00  0.00000000E+00  0.00000000E+00
  0.00000000E+00  0.00000000E+00  0.00000000E+00
  0.00000000E+00  0.00000000E+00  0.00000000E+00
  0.00000000E+00  0.00000000E+00  0.00000000E+00
  0.00000000E+00  0.00000000E+00  0.00000000E+00
  0.00000000E+00  0.00000000E+00  0.00000000E+00
  0.00000000E+00  0.00000000E+00  0.00000000E+00
  0.00000000E+00  0.00000000E+00  0.00000000E+00
  0.00000000E+00  0.00000000E+00  0.00000000E+00
  0.00000000E+00  0.00000000E+00  0.00000000E+00
  0.00000000E+00  0.00000000E+00  0.00000000E+00
  0.00000000E+00  0.00000000E+00  0.00000000E+00
  0.00000000E+00  0.00000000E+00  0.00000000E+00
  0.00000000E+00  0.00000000E+00  0.00000000E+00
  0.00000000E+00  0.00000000E+00  0.00000000E+00
  0.00000000E+00  0.00000000E+00  0.00000000E+00
  0.00000000E+00  0.00000000E+00  0.00000000E+00
  0.00000000E+00  0.00000000E+00  0.00000000E+00
  0.00000000E+00  0.00000000E+00  0.00000000E+00
  0.00000000E+00  0.00000000E+00  0.00000000E+00
  0.00000000E+00  0.00000000E+00  0.00000000E+00
  0.00000000E+00  0.00000000E+00  0.00000000E+00
  0.00000000E+00  0.00000000E+00  0.00000000E+00
  0.00000000E+00  0.00000000E+00  0.00000000E+00
  0.00000000E+00  0.00000000E+00  0.00000000E+00
  0.00000000E+00  0.00000000E+00  0.00000000E+00
  0.00000000E+00  0.00000000E+00  0.00000000E+00
  0.00000000E+00  0.00000000E+00  0.00000000E+00
  0.00000000E+00  0.00000000E+00  0.00000000E+00
  0.00000000E+00  0.00000000E+00  0.00000000E+00
  0.00000000E+00  0.00000000E+00  0.00000000E+00
  0.00000000E+00  0.00000000E+00  0.00000000E+00
  0.00000000E+00  0.00000000E+00  0.00000000E+00
  0.00000000E+00  0.00000000E+00  0.00000000E+00
  0.00000000E+00  0.00000000E+00  0.00000000E+00
  0.00000000E+00  0.00000000E+00  0.00000000E+00
  0.00000000E+00  0.00000000E+00  0.00000000E+00
  0.00000000E+00  0.00000000E+00  0.00000000E+00
  0.00000000E+00  0.00000000E+00  0.00000000E+00
  0.00000000E+00  0.00000000E+00  0.00000000E+00
  0.00000000E+00  0.00000000E+00  0.00000000E+00
  0.00000000E+00  0.00000000E+00  0.00000000E+00
  0.00000000E+00  0.00000000E+00  0.00000000E+00
  0.00000000E+00  0.00000000E+00  0.00000000E+00
  0.00000000E+00  0.00000000E+00  0.00000000E+00
  0.00000000E+00  0.00000000E+00  0.00000000E+00
  0.00000000E+00  0.00000000E+00  0.00000000E+00
  0.00000000E+00  0.00000000E+00  0.00000000E+00
  0.00000000E+00  0.00000000E+00  0.00000000E+00
  0.00000000E+00  0.00000000E+00  0.00000000E+00
  0.00000000E+00  0.00000000E+00  0.00000000E+00
  0.00000000E+00  0.00000000E+00  0.00000000E+00
  0.00000000E+00  0.00000000E+00  0.00000000E+00
  0.00000000E+00  0.00000000E+00  0.00000000E+00
  0.00000000E+00  0.00000000E+00  0.00000000E+00
  0.00000000E+00  0.00000000E+00  0.00000000E+00
  0.00000000E+00  0.00000000E+00  0.00000000E+00
  0.00000000E+00  0.00000000E+00  0.00000000E+00
  0.00000000E+00  0.00000000E+00  0.00000000E+00
  0.00000000E+00  0.00000000E+00  0.00000000E+00
  0.00000000E+00  0.00000000E+00  0.00000000E+00
  0.00000000E+00  0.00000000E+00  0.00000000E+00
  0.00000000E+00  0.00000000E+00  0.00000000E+00
  0.00000000E+00  0.00000000E+00  0.00000000E+00
  0.00000000E+00  0.00000000E+00  0.00000000E+00
  0.00000000E+00  0.00000000E+00  0.00000000E+00
  0.00000000E+00  0.00000000E+00  0.00000000E+00
  0.00000000E+00  0.00000000E+00  0.00000000E+00
  0.00000000E+00  0.00000000E+00  0.00000000E+00
  0.00000000E+00  0.00000000E+00  0.00000000E+00
  0.00000000E+00  0.00000000E+00  0.00000000E+00
  0.00000000E+00  0.00000000E+00  0.00000000E+00
  0.00000000E+00  0.00000000E+00  0.00000000E+00
  0.00000000E+00  0.00000000E+00  0.00000000E+00
  0.00000000E+00  0.00000000E+00  0.00000000E+00
  0.00000000E+00  0.00000000E+00  0.00000000E+00
  0.00000000E+00  0.00000000E+00  0.00000000E+00
  0.00000000E+00  0.00000000E+00  0.00000000E+00
  0.00000000E+00  0.00000000E+00  0.00000000E+00
  0.00000000E+00  0.00000000E+00  0.00000000E+00
  0.00000000E+00  0.00000000E+00  0.00000000E+00
  0.00000000E+00  0.00000000E+00  0.00000000E+00
  0.00000000E+00  0.00000000E+00  0.00000000E+00
  0.00000000E+00  0.00000000E+00  0.00000000E+00
  0.00000000E+00  0.00000000E+00  0.00000000E+00
  0.00000000E+00  0.00000000E+00  0.00000000E+00
  0.00000000E+00  0.00000000E+00  0.00000000E+00
  0.00000000E+00  0.00000000E+00  0.00000000E+00
  0.00000000E+00  0.00000000E+00  0.00000000E+00
  0.00000000E+00  0.00000000E+00  0.00000000E+00
  0.00000000E+00  0.00000000E+00  0.00000000E+00
  0.00000000E+00  0.00000000E+00  0.00000000E+00
  0.00000000E+00  0.00000000E+00  0.00000000E+00
  0.00000000E+00  0.00000000E+00  0.00000000E+00
  0.00000000E+00  0.00000000E+00  0.00000000E+00
  0.00000000E+00  0.00000000E+00  0.00000000E+00
  0.00000000E+00  0.00000000E+00  0.00000000E+00
  0.00000000E+00  0.00000000E+00  0.00000000E+00
  0.00000000E+00  0.00000000E+00  0.00000000E+00
  0.00000000E+00  0.00000000E+00  0.00000000E+00
  0.00000000E+00  0.00000000E+00  0.00000000E+00
  0.00000000E+00  0.00000000E+00  0.00000000E+00
  0.00000000E+00  0.00000000E+00  0.00000000E+00
  0.00000000E+00  0.00000000E+00  0.00000000E+00
  0.00000000E+00  0.00000000E+00  0.00000000E+00
  0.00000000E+00  0.00000000E+00  0.00000000E+00
  0.00000000E+00  0.00000000E+00  0.00000000E+00
  0.00000000E+00  0.00000000E+00  0.00000000E+00
  0.00000000E+00  0.00000000E+00  0.00000000E+00
  0.00000000E+00  0.00000000E+00  0.00000000E+00
  0.00000000E+00  0.00000000E+00  0.00000000E+00
  0.00000000E+00  0.00000000E+00  0.00000000E+00
  0.00000000E+00  0.00000000E+00  0.00000000E+00
  0.00000000E+00  0.00000000E+00  0.00000000E+00
  0.00000000E+00  0.00000000E+00  0.00000000E+00
  0.00000000E+00  0.00000000E+00  0.00000000E+00
  0.00000000E+00  0.00000000E+00  0.00000000E+00
  0.00000000E+00  0.00000000E+00  0.00000000E+00
  0.00000000E+00  0.00000000E+00  0.00000000E+00
  0.00000000E+00  0.00000000E+00  0.00000000E+00
  0.00000000E+00  0.00000000E+00  0.00000000E+00
  0.00000000E+00  0.00000000E+00  0.00000000E+00
  0.00000000E+00  0.00000000E+00  0.00000000E+00
  0.00000000E+00  0.00000000E+00  0.00000000E+00
  0.00000000E+00  0.00000000E+00  0.00000000E+00
  0.00000000E+00  0.00000000E+00  0.00000000E+00
  0.00000000E+00  0.00000000E+00  0.00000000E+00
  0.00000000E+00  0.00000000E+00  0.00000000E+00
  0.00000000E+00  0.00000000E+00  0.00000000E+00
  0.00000000E+00  0.00000000E+00  0.00000000E+00
  0.00000000E+00  0.00000000E+00  0.00000000E+00
  0.00000000E+00  0.00000000E+00  0.00000000E+00
  0.00000000E+00  0.00000000E+00  0.00000000E+00
  0.00000000E+00  0.00000000E+00  0.00000000E+00
  0.00000000E+00  0.00000000E+00  0.00000000E+00
  0.00000000E+00  0.00000000E+00  0.00000000E+00
  0.00000000E+00  0.00000000E+00  0.00000000E+00
  0.00000000E+00  0.00000000E+00  0.00000000E+00
