 C  N  V                                
   1.00000000000000     
     8.5035297671037249   -0.0170575189996923   -0.0001451844047829
    -0.0169853037223156    8.5038860617878775    0.0001388055509038
    -0.0003367359123684    0.0003237079775724   19.8345469701042916
   C    N    V 
    22     2     1
Direct
  0.5000818542480937  0.0845246026545416  0.1542361370833872
  0.3533800411507088  0.1631048584478603  0.1542436335959846
  0.6480260596393052  0.1659432245324522  0.1542148700831837
  0.7964251274997421  0.9174460021153861  0.1541810293986255
  0.7960006556197891  0.0830273097279502  0.1541658330373918
  0.9168904141143231  0.2039408893090168  0.1541576609982695
  0.8341938185482078  0.3520752992511447  0.1541915294374348
  0.2031056181344903  0.0820399408112664  0.1541816968254425
  0.0825609901809529  0.2035380503178222  0.1541723645540402
  0.1656470611812657  0.3532003827506669  0.1542228193850789
  0.0857321093539526  0.4995411936175420  0.1542117653132871
  0.1648346846104520  0.6483748599293597  0.1542160958781471
  0.3516804932456031  0.8352603616062223  0.1542385850647063
  0.2036098054706202  0.9169898372142944  0.1541721191592813
  0.0829005882916283  0.7962369301403709  0.1541549610202296
  0.6465678925271939  0.8344221214289073  0.1542301102039244
  0.8369558990066679  0.6464314343025193  0.1541982376172754
  0.9179068591568171  0.7967421928424357  0.1541612559186601
  0.5005555512223526  0.9142570279841516  0.1542396583915883
  0.9153749568074619  0.4999894268650144  0.1541958829766409
  0.6710471090436637  0.6672788729190289  0.1542650283587103
  0.3328643383416316  0.3288872124318178  0.1542989809287835
  0.6713573680333484  0.3286924946439400  0.1542355772824913
  0.3275050419345547  0.6727099531981885  0.1542661982851732
  0.4951452236374291  0.5046584382005481  0.1543609790230559
 
  0.00000000E+00  0.00000000E+00  0.00000000E+00
  0.00000000E+00  0.00000000E+00  0.00000000E+00
  0.00000000E+00  0.00000000E+00  0.00000000E+00
  0.00000000E+00  0.00000000E+00  0.00000000E+00
  0.00000000E+00  0.00000000E+00  0.00000000E+00
  0.00000000E+00  0.00000000E+00  0.00000000E+00
  0.00000000E+00  0.00000000E+00  0.00000000E+00
  0.00000000E+00  0.00000000E+00  0.00000000E+00
  0.00000000E+00  0.00000000E+00  0.00000000E+00
  0.00000000E+00  0.00000000E+00  0.00000000E+00
  0.00000000E+00  0.00000000E+00  0.00000000E+00
  0.00000000E+00  0.00000000E+00  0.00000000E+00
  0.00000000E+00  0.00000000E+00  0.00000000E+00
  0.00000000E+00  0.00000000E+00  0.00000000E+00
  0.00000000E+00  0.00000000E+00  0.00000000E+00
  0.00000000E+00  0.00000000E+00  0.00000000E+00
  0.00000000E+00  0.00000000E+00  0.00000000E+00
  0.00000000E+00  0.00000000E+00  0.00000000E+00
  0.00000000E+00  0.00000000E+00  0.00000000E+00
  0.00000000E+00  0.00000000E+00  0.00000000E+00
  0.00000000E+00  0.00000000E+00  0.00000000E+00
  0.00000000E+00  0.00000000E+00  0.00000000E+00
  0.00000000E+00  0.00000000E+00  0.00000000E+00
  0.00000000E+00  0.00000000E+00  0.00000000E+00
  0.00000000E+00  0.00000000E+00  0.00000000E+00
