 C  N  H Fe                             
   1.00000000000000     
    11.1316324918423799  -19.2826567926993526    0.0000000000000000
    11.1316324918423799   19.2826567926993526    0.0000000000000000
     0.0000000000000000    0.0000000000000000   16.0000000000000000
   C    N    H    Fe
   194     8    16     1
Direct
  0.0000004203161217  0.0000042853130691  0.1126479338360500
  0.0370645984740994  0.0740936313447081  0.1127270135696959
  0.0000177844268574  0.1111238445321380  0.1126717737495167
  0.0370755136895769  0.1852058107246724  0.1127299921159308
  0.0000259487789504  0.2222394096970011  0.1126593867324121
  0.0370783823488818  0.2963179072253811  0.1126329440727297
  0.0000221880414824  0.3333431065912303  0.1126277354447743
  0.0370832761369999  0.4074272289698797  0.1125237210892272
  0.0000100594645577  0.4444419194054629  0.1126591997967534
  0.0370575455336382  0.5185155323321002  0.1126309921161578
  0.9999916214450194  0.5555442771916201  0.1127215394256277
  0.0370298548928011  0.6296153868317121  0.1126909482940897
  0.9999734766272866  0.6666451740866475  0.1126700908384856
  0.0370209195885829  0.7407279810038572  0.1126071232011603
  0.9999751231003474  0.7777627769732371  0.1125909914574738
  0.0370275269438502  0.8518459328250576  0.1125687675540328
  0.9999859990308291  0.8888861824346003  0.1125930867831492
  0.0370423468304965  0.9629695274354383  0.1126437104960697
  0.1111300979489981  0.0000334418756157  0.1127394274219899
  0.1481879318386903  0.0741173902801105  0.1129016131729291
  0.1111475726204869  0.1111506134286551  0.1128902020492306
  0.1481984734990430  0.1852231088844347  0.1130003557499136
  0.1111577278122752  0.2222538946935894  0.1128840018957667
  0.1482084237924378  0.2963354844235395  0.1128303624553768
  0.1111686571885047  0.3333729463097875  0.1125845237145844
  0.1482114823872515  0.4074395961020284  0.1122383064172808
  0.1111675103984174  0.4444634039362048  0.1121724565846131
  0.1482067690883973  0.5185161710607999  0.1119641086724825
  0.1111447114497333  0.5555304690428838  0.1123747832584361
  0.1481712390462176  0.6296093618684244  0.1125013481116163
  0.1111179559672410  0.6666469836615386  0.1126472832476865
  0.1481499268550113  0.7407268847732552  0.1126189899405570
  0.1111030339146116  0.7777694089062021  0.1125880067148066
  0.1481441429249464  0.8518490576814105  0.1125759554744352
  0.1111078910749164  0.8888958676999679  0.1125865631423915
  0.1481592463741912  0.9629858603908493  0.1126983348843917
  0.2222388821577528  0.0000446262209360  0.1127694917834037
  0.2592748260204624  0.0741252845013579  0.1129325674347814
  0.2222535050244884  0.1111695290262480  0.1130204461623653
  0.2592912073636590  0.1852354258732710  0.1131747794163943
  0.2222650731045790  0.2222663836114861  0.1131653164146556
  0.2592841768085579  0.2963242899358221  0.1132425975274667
  0.2222673631227894  0.3333708578887372  0.1129717749885759
  0.2592742372855509  0.4074243704521023  0.1127748160380302
  0.2222629293328193  0.4444661849070711  0.1122331205236565
  0.2592840531017113  0.5185152716880679  0.1120184986540716
  0.2222601418493729  0.5555338727586440  0.1117713457098761
  0.2592804787936369  0.6295768494517177  0.1119811077002026
  0.2222510130290981  0.6666254416297314  0.1123382309657575
  0.2592650016539113  0.7407054538989333  0.1125468420519002
  0.2222261566535121  0.7777580787315107  0.1126055487289512
  0.2592613334919627  0.8518459950144435  0.1126009001915397
  0.2222261366074507  0.8888957372791205  0.1126017080911970
  0.2592649078747239  0.9629828419827724  0.1126809345467798
  0.3333374786737755  0.0000238856792826  0.1126948518542820
  0.3703692999407358  0.0741142433828936  0.1128106340801777
  0.3333446227932560  0.1111691518074827  0.1129466556108128
  0.3703778477852684  0.1852387245078308  0.1130521392604072
  0.3333412111246336  0.2222625895330476  0.1132316565912920
  0.3703784833261083  0.2963196677764577  0.1134252227186463
  0.3333378869638292  0.3333453490092583  0.1135108384875477
  0.3703566557006072  0.4074086598640584  0.1136677899341038
  0.3333326159515787  0.4444514262229167  0.1132318312791296
  0.3703637926293022  0.5185126142123857  0.1131134109350853
  0.3333266358294324  0.5555384644358727  0.1124752055471988
  0.3703704663292140  0.6295821701207419  0.1125101311780412
  0.3333315787740188  0.6666037549913520  0.1122907682094435
  0.3703662409240542  0.7406813504565629  0.1125839462023209
  0.3333436656575686  0.7777447341739726  0.1125867660343097
  0.3703713630899109  0.8518294358390091  0.1126157737601501
  0.3333369707733954  0.8888849683225813  0.1125957359764844
  0.3703669102672343  0.9629668992664899  0.1126157630685119
  0.4444432694766535  0.0000065756966290  0.1126053306876707
  0.4814724157717870  0.0740908675860999  0.1126502474353367
  0.4444435583512453  0.1111517314880921  0.1127555460869322
  0.4814697930886503  0.1852320715639951  0.1127381104492716
  0.4444369631682052  0.2222721129356455  0.1128835824942795
  0.4814871747388553  0.2963355867420925  0.1128621552078860
  0.4444450776811998  0.3333462750015553  0.1132999000000720
  0.4814842359855663  0.4073977386349038  0.1135702627676564
  0.4444344634445905  0.4444346685657073  0.1139267960605805
  0.4814737401196801  0.5185148231404527  0.1139031812565029
  0.4444281783758071  0.5555465298335973  0.1135374215713072
  0.4814720095667739  0.6296038155986182  0.1133032116722987
  0.4444272260800439  0.6666122477300491  0.1129297035031322
  0.4814743353253776  0.7406762529838735  0.1129405864362650
  0.4444428221484937  0.7777241229381888  0.1127803573899030
  0.4814695576374808  0.8518059068884194  0.1127517574907608
  0.4444418791161577  0.8888645239860089  0.1126368103220779
  0.4814736509614078  0.9629526314276559  0.1125985251255241
  0.5555464799666259  0.9999900895843729  0.1126073914893438
  0.5925761747699810  0.0740716454662327  0.1125997938024497
  0.5555428057492635  0.1111254689228938  0.1126160908274376
  0.5925717937543171  0.1852140577704326  0.1125446192903865
  0.5555486970834389  0.2222766449373466  0.1124885639591564
  0.5925823375791908  0.2963458509617375  0.1121452716735787
  0.5555367051879242  0.3333607230452199  0.1124321512159032
  0.5925782028366026  0.4074054616521616  0.1125535783406503
  0.5555464628181360  0.4444318486669055  0.1131976685210919
  0.5925760686042444  0.5184973887071608  0.1133720987534490
  0.5555550327682567  0.5555417005830680  0.1137147767797429
  0.5925728351330822  0.6295998798345959  0.1135299270029060
  0.5555325145188259  0.6666290187473876  0.1134104730091802
  0.5925722198180129  0.7406846610450729  0.1132044079904222
  0.5555382904619238  0.7777099108603894  0.1130617181694848
  0.5925719880513636  0.8517873438662831  0.1129421237975064
  0.5555471482881205  0.8888454191935768  0.1127900902425736
  0.5925782033566960  0.9629321196238544  0.1126771552743272
  0.6666510242481697  0.9999727818195044  0.1126647291369129
  0.7036912490031474  0.0740631426552285  0.1126020465830871
  0.6666547953198457  0.1111118227316357  0.1126012248682638
  0.7036866249787851  0.1851961985132403  0.1125934937215666
  0.6666470015064977  0.2222516208737224  0.1124834455596185
  0.7036580354938738  0.2963299740529432  0.1122369201291796
  0.6666295937152875  0.3333696041194985  0.1118781010008856
  0.7036557662720049  0.4074137062405333  0.1118662407656053
  0.6666314864048785  0.4444315906320515  0.1122413089635530
  0.7036499014138023  0.5184796491765866  0.1125740675784677
  0.6666336767556034  0.5555249530548855  0.1130346911851613
  0.7036450954063005  0.6295809280674222  0.1131394124437897
  0.6666289822532862  0.6666263988289158  0.1133013318727428
  0.7036535781179368  0.7406883665225809  0.1131502127901430
  0.6666267668792324  0.7777163094793201  0.1131312517550763
  0.7036633813877190  0.8517792435140229  0.1129802573584668
  0.6666422060864772  0.8888299690415796  0.1129103252566496
  0.7036777853383090  0.9629136869541292  0.1127524911112720
  0.7777611715158281  0.9999731951640980  0.1126783686501649
  0.8148090911584875  0.0740592532126050  0.1125857118660858
  0.7777697195669884  0.1111063186749620  0.1125798766987839
  0.8148092532764731  0.1851855229376116  0.1126026974534425
  0.7777629269032338  0.2222258896642355  0.1126184096963851
  0.8147941420762242  0.2963099065236575  0.1126468297805542
  0.7777393366865988  0.3333467620528066  0.1124717027915767
  0.8147647572337721  0.4074188725392410  0.1124142125326581
  0.7777028832730627  0.4444323585031924  0.1121012554869442
  0.8147428999464772  0.5184829491538353  0.1123864769189854
  0.7777037266413165  0.5555091741187533  0.1125499712488336
  0.8147494104075773  0.6295833421094821  0.1127727584240566
  0.7777112165088615  0.6666203475673877  0.1129616761414437
  0.8147580362567026  0.7406974529278360  0.1129175284849141
  0.7777155403180627  0.7777290756131268  0.1129867577888192
  0.8147676960483038  0.8518007023549543  0.1128664735944789
  0.7777303928772022  0.8888345378068790  0.1128651622572910
  0.8147897689394751  0.9629236785084533  0.1127207144622773
  0.8888743773231241  0.9999855731175031  0.1126352630579676
  0.9259296387423800  0.0740687540001059  0.1125984990964075
  0.8888889299482785  0.1111072464365491  0.1125746787526520
  0.9259423395810462  0.1851937454692980  0.1126027715407507
  0.8888945505950563  0.2222274018613006  0.1126199039447071
  0.9259379320589336  0.2963055694513695  0.1126725373448769
  0.8888793615734947  0.3333369382668351  0.1126962757152652
  0.9259164918822136  0.4074077584300921  0.1127261454100994
  0.8888511282047767  0.4444334637872477  0.1126640571146313
  0.9259022531297476  0.5185113478725177  0.1127020946567607
  0.8888304636806043  0.5555254546556548  0.1126250636966568
  0.9258890557284343  0.6296054172248411  0.1126853705784856
  0.8888346505501340  0.6666350804370462  0.1127072903939448
  0.9258872837845045  0.7407132162155394  0.1126743026151743
  0.8888399277173399  0.7777455241365387  0.1127344827172107
  0.9259011523382644  0.8518318306496252  0.1126638013905443
  0.8888549089811255  0.8888621949089004  0.1127106088677637
  0.9259169710955115  0.9629480290820125  0.1126429280020147
  0.2670978735529730  0.1336836389639701  0.3758386086651980
  0.3362367793987452  0.1869982600545441  0.3684776670423209
  0.3491697407416722  0.2554579052631242  0.3628575538852428
  0.2940248764758464  0.2699879719190280  0.3642356128862729
  0.2247000251888580  0.2164119675329440  0.3709310207324865
  0.2119548754671957  0.1482107094928357  0.3769679240892234
  0.3255601428162925  0.3452431834301216  0.3585555897184103
  0.4133111350379391  0.3221983523403653  0.3573283975009016
  0.3179563105369100  0.4458198557422999  0.3516794093975784
  0.3950528691599705  0.5603585285876856  0.3532578774287319
  0.2778602498361207  0.4813833224190879  0.3453262193068068
  0.3262669423394726  0.5533286200542535  0.3467619643702005
  0.3044535823343106  0.6024694227629152  0.3422452075673665
  0.2330142603324354  0.5778064841771452  0.3353823249364066
  0.1846393785797010  0.5058770401658875  0.3334104144107380
  0.2064094804531081  0.4567263161831887  0.3386309714669823
  0.5338544968899372  0.3893413756427844  0.3516069134264188
  0.6109301216278047  0.5038179640139606  0.3566730638299016
  0.6248026395283472  0.3477613827791122  0.3388445133434281
  0.6964185921398074  0.3726838999920576  0.3346818193404468
  0.7448229702861631  0.4445293605601490  0.3391159316968043
  0.7228505020585015  0.4933421487909735  0.3474064521748195
  0.6512158430715275  0.4684321958959942  0.3510825015301841
  0.6028070749462379  0.3965505908075553  0.3471892635076538
  0.6032203732267581  0.6043186330764470  0.3637194384641718
  0.5155229407918671  0.6274127548895666  0.3609399486462796
  0.6347947396574107  0.6796488645515902  0.3674943315201493
  0.7042181153735628  0.7333504131084385  0.3719013309731021
  0.7171250463967800  0.8017417528919549  0.3736968377937729
  0.6620459735647247  0.8163256404028044  0.3708632784503078
  0.5927640775980182  0.7628291967897936  0.3668821305568695
  0.5796743028869487  0.6941908057464311  0.3655693990668037
  0.3977190873420407  0.3756697247574252  0.3562384912487640
  0.2885923588692155  0.3771442114879865  0.3544248602049633
  0.3886606152038141  0.4946697456849026  0.3556853171455802
  0.4757809636355416  0.3281066734889727  0.3536336760947814
  0.5401449778722716  0.4549931326899458  0.3551018204413484
  0.6402447118035527  0.5724018068556964  0.3618809244233452
  0.5311113961405375  0.5738927082575541  0.3604237105708509
  0.4531225769870221  0.6215453487196777  0.3564131615053930
  0.2552270309682566  0.0798619149927401  0.3812988586221560
  0.3789891526980881  0.1761789928767531  0.3680028994331641
  0.1824956628940978  0.2280321372437683  0.3719768312491965
  0.1586602728083572  0.1053045912200922  0.3832414718101304
  0.3421409384980137  0.6579230414963690  0.3436915446057052
  0.2142649652059513  0.6146741859121797  0.3308607175660384
  0.1294067185724585  0.4884722163983833  0.3271282387373044
  0.1693810024372422  0.4011148096407370  0.3370076906270228
  0.5871270452682436  0.2923941515988355  0.3350300462309256
  0.7153215233794078  0.3361306280866939  0.3273578527709987
  0.8002581357392646  0.4621541819659959  0.3355475674813432
  0.7598594714841781  0.5489150679872838  0.3505394938966725
  0.7463757906600114  0.7216924261778788  0.3741140141743712
  0.7705483026977451  0.8448127194454664  0.3773168218016804
  0.6741063435217752  0.8703575270636514  0.3719890909294430
  0.5500680694302255  0.7736931374220182  0.3646271447516271
  0.4643784982777408  0.4748187443687364  0.3565155168357771
 
  0.00000000E+00  0.00000000E+00  0.00000000E+00
  0.00000000E+00  0.00000000E+00  0.00000000E+00
  0.00000000E+00  0.00000000E+00  0.00000000E+00
  0.00000000E+00  0.00000000E+00  0.00000000E+00
  0.00000000E+00  0.00000000E+00  0.00000000E+00
  0.00000000E+00  0.00000000E+00  0.00000000E+00
  0.00000000E+00  0.00000000E+00  0.00000000E+00
  0.00000000E+00  0.00000000E+00  0.00000000E+00
  0.00000000E+00  0.00000000E+00  0.00000000E+00
  0.00000000E+00  0.00000000E+00  0.00000000E+00
  0.00000000E+00  0.00000000E+00  0.00000000E+00
  0.00000000E+00  0.00000000E+00  0.00000000E+00
  0.00000000E+00  0.00000000E+00  0.00000000E+00
  0.00000000E+00  0.00000000E+00  0.00000000E+00
  0.00000000E+00  0.00000000E+00  0.00000000E+00
  0.00000000E+00  0.00000000E+00  0.00000000E+00
  0.00000000E+00  0.00000000E+00  0.00000000E+00
  0.00000000E+00  0.00000000E+00  0.00000000E+00
  0.00000000E+00  0.00000000E+00  0.00000000E+00
  0.00000000E+00  0.00000000E+00  0.00000000E+00
  0.00000000E+00  0.00000000E+00  0.00000000E+00
  0.00000000E+00  0.00000000E+00  0.00000000E+00
  0.00000000E+00  0.00000000E+00  0.00000000E+00
  0.00000000E+00  0.00000000E+00  0.00000000E+00
  0.00000000E+00  0.00000000E+00  0.00000000E+00
  0.00000000E+00  0.00000000E+00  0.00000000E+00
  0.00000000E+00  0.00000000E+00  0.00000000E+00
  0.00000000E+00  0.00000000E+00  0.00000000E+00
  0.00000000E+00  0.00000000E+00  0.00000000E+00
  0.00000000E+00  0.00000000E+00  0.00000000E+00
  0.00000000E+00  0.00000000E+00  0.00000000E+00
  0.00000000E+00  0.00000000E+00  0.00000000E+00
  0.00000000E+00  0.00000000E+00  0.00000000E+00
  0.00000000E+00  0.00000000E+00  0.00000000E+00
  0.00000000E+00  0.00000000E+00  0.00000000E+00
  0.00000000E+00  0.00000000E+00  0.00000000E+00
  0.00000000E+00  0.00000000E+00  0.00000000E+00
  0.00000000E+00  0.00000000E+00  0.00000000E+00
  0.00000000E+00  0.00000000E+00  0.00000000E+00
  0.00000000E+00  0.00000000E+00  0.00000000E+00
  0.00000000E+00  0.00000000E+00  0.00000000E+00
  0.00000000E+00  0.00000000E+00  0.00000000E+00
  0.00000000E+00  0.00000000E+00  0.00000000E+00
  0.00000000E+00  0.00000000E+00  0.00000000E+00
  0.00000000E+00  0.00000000E+00  0.00000000E+00
  0.00000000E+00  0.00000000E+00  0.00000000E+00
  0.00000000E+00  0.00000000E+00  0.00000000E+00
  0.00000000E+00  0.00000000E+00  0.00000000E+00
  0.00000000E+00  0.00000000E+00  0.00000000E+00
  0.00000000E+00  0.00000000E+00  0.00000000E+00
  0.00000000E+00  0.00000000E+00  0.00000000E+00
  0.00000000E+00  0.00000000E+00  0.00000000E+00
  0.00000000E+00  0.00000000E+00  0.00000000E+00
  0.00000000E+00  0.00000000E+00  0.00000000E+00
  0.00000000E+00  0.00000000E+00  0.00000000E+00
  0.00000000E+00  0.00000000E+00  0.00000000E+00
  0.00000000E+00  0.00000000E+00  0.00000000E+00
  0.00000000E+00  0.00000000E+00  0.00000000E+00
  0.00000000E+00  0.00000000E+00  0.00000000E+00
  0.00000000E+00  0.00000000E+00  0.00000000E+00
  0.00000000E+00  0.00000000E+00  0.00000000E+00
  0.00000000E+00  0.00000000E+00  0.00000000E+00
  0.00000000E+00  0.00000000E+00  0.00000000E+00
  0.00000000E+00  0.00000000E+00  0.00000000E+00
  0.00000000E+00  0.00000000E+00  0.00000000E+00
  0.00000000E+00  0.00000000E+00  0.00000000E+00
  0.00000000E+00  0.00000000E+00  0.00000000E+00
  0.00000000E+00  0.00000000E+00  0.00000000E+00
  0.00000000E+00  0.00000000E+00  0.00000000E+00
  0.00000000E+00  0.00000000E+00  0.00000000E+00
  0.00000000E+00  0.00000000E+00  0.00000000E+00
  0.00000000E+00  0.00000000E+00  0.00000000E+00
  0.00000000E+00  0.00000000E+00  0.00000000E+00
  0.00000000E+00  0.00000000E+00  0.00000000E+00
  0.00000000E+00  0.00000000E+00  0.00000000E+00
  0.00000000E+00  0.00000000E+00  0.00000000E+00
  0.00000000E+00  0.00000000E+00  0.00000000E+00
  0.00000000E+00  0.00000000E+00  0.00000000E+00
  0.00000000E+00  0.00000000E+00  0.00000000E+00
  0.00000000E+00  0.00000000E+00  0.00000000E+00
  0.00000000E+00  0.00000000E+00  0.00000000E+00
  0.00000000E+00  0.00000000E+00  0.00000000E+00
  0.00000000E+00  0.00000000E+00  0.00000000E+00
  0.00000000E+00  0.00000000E+00  0.00000000E+00
  0.00000000E+00  0.00000000E+00  0.00000000E+00
  0.00000000E+00  0.00000000E+00  0.00000000E+00
  0.00000000E+00  0.00000000E+00  0.00000000E+00
  0.00000000E+00  0.00000000E+00  0.00000000E+00
  0.00000000E+00  0.00000000E+00  0.00000000E+00
  0.00000000E+00  0.00000000E+00  0.00000000E+00
  0.00000000E+00  0.00000000E+00  0.00000000E+00
  0.00000000E+00  0.00000000E+00  0.00000000E+00
  0.00000000E+00  0.00000000E+00  0.00000000E+00
  0.00000000E+00  0.00000000E+00  0.00000000E+00
  0.00000000E+00  0.00000000E+00  0.00000000E+00
  0.00000000E+00  0.00000000E+00  0.00000000E+00
  0.00000000E+00  0.00000000E+00  0.00000000E+00
  0.00000000E+00  0.00000000E+00  0.00000000E+00
  0.00000000E+00  0.00000000E+00  0.00000000E+00
  0.00000000E+00  0.00000000E+00  0.00000000E+00
  0.00000000E+00  0.00000000E+00  0.00000000E+00
  0.00000000E+00  0.00000000E+00  0.00000000E+00
  0.00000000E+00  0.00000000E+00  0.00000000E+00
  0.00000000E+00  0.00000000E+00  0.00000000E+00
  0.00000000E+00  0.00000000E+00  0.00000000E+00
  0.00000000E+00  0.00000000E+00  0.00000000E+00
  0.00000000E+00  0.00000000E+00  0.00000000E+00
  0.00000000E+00  0.00000000E+00  0.00000000E+00
  0.00000000E+00  0.00000000E+00  0.00000000E+00
  0.00000000E+00  0.00000000E+00  0.00000000E+00
  0.00000000E+00  0.00000000E+00  0.00000000E+00
  0.00000000E+00  0.00000000E+00  0.00000000E+00
  0.00000000E+00  0.00000000E+00  0.00000000E+00
  0.00000000E+00  0.00000000E+00  0.00000000E+00
  0.00000000E+00  0.00000000E+00  0.00000000E+00
  0.00000000E+00  0.00000000E+00  0.00000000E+00
  0.00000000E+00  0.00000000E+00  0.00000000E+00
  0.00000000E+00  0.00000000E+00  0.00000000E+00
  0.00000000E+00  0.00000000E+00  0.00000000E+00
  0.00000000E+00  0.00000000E+00  0.00000000E+00
  0.00000000E+00  0.00000000E+00  0.00000000E+00
  0.00000000E+00  0.00000000E+00  0.00000000E+00
  0.00000000E+00  0.00000000E+00  0.00000000E+00
  0.00000000E+00  0.00000000E+00  0.00000000E+00
  0.00000000E+00  0.00000000E+00  0.00000000E+00
  0.00000000E+00  0.00000000E+00  0.00000000E+00
  0.00000000E+00  0.00000000E+00  0.00000000E+00
  0.00000000E+00  0.00000000E+00  0.00000000E+00
  0.00000000E+00  0.00000000E+00  0.00000000E+00
  0.00000000E+00  0.00000000E+00  0.00000000E+00
  0.00000000E+00  0.00000000E+00  0.00000000E+00
  0.00000000E+00  0.00000000E+00  0.00000000E+00
  0.00000000E+00  0.00000000E+00  0.00000000E+00
  0.00000000E+00  0.00000000E+00  0.00000000E+00
  0.00000000E+00  0.00000000E+00  0.00000000E+00
  0.00000000E+00  0.00000000E+00  0.00000000E+00
  0.00000000E+00  0.00000000E+00  0.00000000E+00
  0.00000000E+00  0.00000000E+00  0.00000000E+00
  0.00000000E+00  0.00000000E+00  0.00000000E+00
  0.00000000E+00  0.00000000E+00  0.00000000E+00
  0.00000000E+00  0.00000000E+00  0.00000000E+00
  0.00000000E+00  0.00000000E+00  0.00000000E+00
  0.00000000E+00  0.00000000E+00  0.00000000E+00
  0.00000000E+00  0.00000000E+00  0.00000000E+00
  0.00000000E+00  0.00000000E+00  0.00000000E+00
  0.00000000E+00  0.00000000E+00  0.00000000E+00
  0.00000000E+00  0.00000000E+00  0.00000000E+00
  0.00000000E+00  0.00000000E+00  0.00000000E+00
  0.00000000E+00  0.00000000E+00  0.00000000E+00
  0.00000000E+00  0.00000000E+00  0.00000000E+00
  0.00000000E+00  0.00000000E+00  0.00000000E+00
  0.00000000E+00  0.00000000E+00  0.00000000E+00
  0.00000000E+00  0.00000000E+00  0.00000000E+00
  0.00000000E+00  0.00000000E+00  0.00000000E+00
  0.00000000E+00  0.00000000E+00  0.00000000E+00
  0.00000000E+00  0.00000000E+00  0.00000000E+00
  0.00000000E+00  0.00000000E+00  0.00000000E+00
  0.00000000E+00  0.00000000E+00  0.00000000E+00
  0.00000000E+00  0.00000000E+00  0.00000000E+00
  0.00000000E+00  0.00000000E+00  0.00000000E+00
  0.00000000E+00  0.00000000E+00  0.00000000E+00
  0.00000000E+00  0.00000000E+00  0.00000000E+00
  0.00000000E+00  0.00000000E+00  0.00000000E+00
  0.00000000E+00  0.00000000E+00  0.00000000E+00
  0.00000000E+00  0.00000000E+00  0.00000000E+00
  0.00000000E+00  0.00000000E+00  0.00000000E+00
  0.00000000E+00  0.00000000E+00  0.00000000E+00
  0.00000000E+00  0.00000000E+00  0.00000000E+00
  0.00000000E+00  0.00000000E+00  0.00000000E+00
  0.00000000E+00  0.00000000E+00  0.00000000E+00
  0.00000000E+00  0.00000000E+00  0.00000000E+00
  0.00000000E+00  0.00000000E+00  0.00000000E+00
  0.00000000E+00  0.00000000E+00  0.00000000E+00
  0.00000000E+00  0.00000000E+00  0.00000000E+00
  0.00000000E+00  0.00000000E+00  0.00000000E+00
  0.00000000E+00  0.00000000E+00  0.00000000E+00
  0.00000000E+00  0.00000000E+00  0.00000000E+00
  0.00000000E+00  0.00000000E+00  0.00000000E+00
  0.00000000E+00  0.00000000E+00  0.00000000E+00
  0.00000000E+00  0.00000000E+00  0.00000000E+00
  0.00000000E+00  0.00000000E+00  0.00000000E+00
  0.00000000E+00  0.00000000E+00  0.00000000E+00
  0.00000000E+00  0.00000000E+00  0.00000000E+00
  0.00000000E+00  0.00000000E+00  0.00000000E+00
  0.00000000E+00  0.00000000E+00  0.00000000E+00
  0.00000000E+00  0.00000000E+00  0.00000000E+00
  0.00000000E+00  0.00000000E+00  0.00000000E+00
  0.00000000E+00  0.00000000E+00  0.00000000E+00
  0.00000000E+00  0.00000000E+00  0.00000000E+00
  0.00000000E+00  0.00000000E+00  0.00000000E+00
  0.00000000E+00  0.00000000E+00  0.00000000E+00
  0.00000000E+00  0.00000000E+00  0.00000000E+00
  0.00000000E+00  0.00000000E+00  0.00000000E+00
  0.00000000E+00  0.00000000E+00  0.00000000E+00
  0.00000000E+00  0.00000000E+00  0.00000000E+00
  0.00000000E+00  0.00000000E+00  0.00000000E+00
  0.00000000E+00  0.00000000E+00  0.00000000E+00
  0.00000000E+00  0.00000000E+00  0.00000000E+00
  0.00000000E+00  0.00000000E+00  0.00000000E+00
  0.00000000E+00  0.00000000E+00  0.00000000E+00
  0.00000000E+00  0.00000000E+00  0.00000000E+00
  0.00000000E+00  0.00000000E+00  0.00000000E+00
  0.00000000E+00  0.00000000E+00  0.00000000E+00
  0.00000000E+00  0.00000000E+00  0.00000000E+00
  0.00000000E+00  0.00000000E+00  0.00000000E+00
  0.00000000E+00  0.00000000E+00  0.00000000E+00
  0.00000000E+00  0.00000000E+00  0.00000000E+00
  0.00000000E+00  0.00000000E+00  0.00000000E+00
  0.00000000E+00  0.00000000E+00  0.00000000E+00
  0.00000000E+00  0.00000000E+00  0.00000000E+00
  0.00000000E+00  0.00000000E+00  0.00000000E+00
  0.00000000E+00  0.00000000E+00  0.00000000E+00
  0.00000000E+00  0.00000000E+00  0.00000000E+00
  0.00000000E+00  0.00000000E+00  0.00000000E+00
  0.00000000E+00  0.00000000E+00  0.00000000E+00
  0.00000000E+00  0.00000000E+00  0.00000000E+00
  0.00000000E+00  0.00000000E+00  0.00000000E+00
  0.00000000E+00  0.00000000E+00  0.00000000E+00
  0.00000000E+00  0.00000000E+00  0.00000000E+00
