 C  N Co                                
   1.00000000000000     
     8.4171347742321228    0.0000000000000001    0.0000000000000000
    -0.0000000000000001    8.4271848726445686    0.0000000000000000
    -0.0000000000000002    0.0000000000000000   19.8713392818999957
   C    N    Co
    22     2     1
Direct
  0.4982629183409999  0.0854803054348716  0.1543099652241344
  0.3512362459139589  0.1669629136021496  0.1542883408582558
  0.6428764524725712  0.1683340517595492  0.1542475637420563
  0.7927349753530759  0.9169353564744264  0.1539975902789545
  0.7927442922356875  0.0830019426739938  0.1540055651753364
  0.9166070553531868  0.2057517539079772  0.1540015517395618
  0.8354107690286648  0.3559274305709135  0.1542123825736036
  0.2034959116311000  0.0837698294807568  0.1540307554034374
  0.0829959918262236  0.2038173859144789  0.1539975639884472
  0.1708245766738453  0.3529779241588596  0.1542358961039483
  0.0911704586029764  0.4999734423410451  0.1542580158960801
  0.1708119234228723  0.6469791694810031  0.1542550035138626
  0.3512222341340795  0.8329913762798126  0.1542933312505280
  0.2034845690014672  0.9161852537933552  0.1540416515103846
  0.0829855794308535  0.7961362294821988  0.1540225567920775
  0.6428693779492427  0.8316033061301364  0.1542297753746351
  0.8354034463679277  0.6440098669121194  0.1542090397558951
  0.9165931998667060  0.7941787382584036  0.1540073056211853
  0.4982556388445054  0.9144668792560273  0.1543041480064759
  0.9210571202750275  0.4999656883589308  0.1542217012048853
  0.6641662179527678  0.3412118921349787  0.1543890884177635
  0.6641557134416031  0.6587292840428551  0.1543741779736428
  0.3324053540190182  0.3309918540001859  0.1544068563738721
  0.3323933886881694  0.6689614509048926  0.1544167202581745
  0.5061861491045788  0.4999695922342496  0.1546564627835949
 
  0.00000000E+00  0.00000000E+00  0.00000000E+00
  0.00000000E+00  0.00000000E+00  0.00000000E+00
  0.00000000E+00  0.00000000E+00  0.00000000E+00
  0.00000000E+00  0.00000000E+00  0.00000000E+00
  0.00000000E+00  0.00000000E+00  0.00000000E+00
  0.00000000E+00  0.00000000E+00  0.00000000E+00
  0.00000000E+00  0.00000000E+00  0.00000000E+00
  0.00000000E+00  0.00000000E+00  0.00000000E+00
  0.00000000E+00  0.00000000E+00  0.00000000E+00
  0.00000000E+00  0.00000000E+00  0.00000000E+00
  0.00000000E+00  0.00000000E+00  0.00000000E+00
  0.00000000E+00  0.00000000E+00  0.00000000E+00
  0.00000000E+00  0.00000000E+00  0.00000000E+00
  0.00000000E+00  0.00000000E+00  0.00000000E+00
  0.00000000E+00  0.00000000E+00  0.00000000E+00
  0.00000000E+00  0.00000000E+00  0.00000000E+00
  0.00000000E+00  0.00000000E+00  0.00000000E+00
  0.00000000E+00  0.00000000E+00  0.00000000E+00
  0.00000000E+00  0.00000000E+00  0.00000000E+00
  0.00000000E+00  0.00000000E+00  0.00000000E+00
  0.00000000E+00  0.00000000E+00  0.00000000E+00
  0.00000000E+00  0.00000000E+00  0.00000000E+00
  0.00000000E+00  0.00000000E+00  0.00000000E+00
  0.00000000E+00  0.00000000E+00  0.00000000E+00
  0.00000000E+00  0.00000000E+00  0.00000000E+00
