 C  N  H Cr                             
   1.00000000000000     
    26.3910702314113124    0.0000000000000000    0.0000000000000000
     0.0000000000000000   26.4018082035454924    0.0000000000000000
     0.0000000000000000    0.0000000000000000   25.0000000000000000
   C    N    H    Cr
    60     8    32     1
Direct
  0.2518601890930527  0.1965749609818059  0.2005725512473947
  0.2033834804589981  0.1710849817078409  0.1993691568627516
  0.1666797036403396  0.2077859471243812  0.1993654974333895
  0.1922143694848483  0.2562244406855329  0.2005736335727034
  0.3467481965563214  0.1966029563583618  0.1993995844678289
  0.3952384614581730  0.1711296621621403  0.2005966041055996
  0.4063864465647357  0.2562747974207919  0.1994116352402878
  0.4319321257362532  0.2078428165199604  0.2006000616752299
  0.2518494158579015  0.4108150666683701  0.1994459194019103
  0.1922282228643403  0.3510921440380079  0.1994499177280404
  0.2033421845969263  0.4362466307821339  0.2006033222359715
  0.1666646401157467  0.3995106395748246  0.2006266701831844
  0.4063560468068811  0.3511296074953433  0.2006100662596997
  0.4319129292142808  0.3995484236936218  0.1993888973704992
  0.3467259656502816  0.4108269882172842  0.2006203995657414
  0.3952341674713911  0.4362756135063805  0.1993848349067083
  0.2992932519413921  0.4357331129974841  0.2000488346286026
  0.1673770413946370  0.3036525987085727  0.2000356705923897
  0.2993065277363437  0.1717168463637645  0.2000125035966333
  0.2992804983518662  0.1149848840817240  0.1999902102568680
  0.3195000547523247  0.0874017220071860  0.1564666633054589
  0.2789203278549586  0.0873714258740435  0.2434295329857749
  0.3198071898525573  0.0345244388073224  0.1560931014006213
  0.2786962696721238  0.0344966788212510  0.2437759981858474
  0.2993545369555194  0.0073243069579445  0.1999738958900387
  0.4312368637828491  0.3037089427155489  0.2000142489537017
  0.2993411932363378  0.4924985321721859  0.2000329394794885
  0.4880093977254706  0.3037360669594756  0.2000134799829662
  0.1106314113832038  0.3036295743885274  0.2000124760457439
  0.2790984374571772  0.5201244371079975  0.1565249429593055
  0.5156187936325705  0.2835244456452508  0.1564840201150539
  0.0830693603921681  0.3238750948379179  0.1564736245476316
  0.3196642068316136  0.5201422852876708  0.2434802706364951
  0.5156306660102526  0.3240242968122554  0.2434968070656454
  0.0829878062134251  0.2833291120190529  0.2434615089035770
  0.2788632688270778  0.5730071076418886  0.1561342502784519
  0.5685151682842445  0.2832678810229308  0.1561209563327979
  0.0301759297580857  0.3242248749644682  0.1560920540520266
  0.3199399698716952  0.5730284220108627  0.2438215357479611
  0.5685309002134452  0.3242672221021701  0.2438645351121471
  0.0300956819829327  0.2831571003980891  0.2437983780800038
  0.2993803828072775  0.6002121418064651  0.1999876390042337
  0.5957008600319381  0.3037196007599245  0.2000187103545041
  0.0029390860010640  0.3037712029658156  0.1999623270491910
  0.6930201703744066  0.3035890489842577  0.2000409530224243
  0.9055882605625034  0.3037860475522265  0.1999981785986017
  0.2992877518935740  0.6975228788255264  0.2000338127062551
  0.2994910483251485  0.9100086607483049  0.2000377565450025
  0.7445303812580553  0.3035916154490992  0.1999841838648126
  0.7734782664182920  0.2563541863321042  0.1997742183339176
  0.7733687885935914  0.3508946715341223  0.2001843240967418
  0.8252080348679165  0.2564219613197103  0.2002865460187399
  0.8250950448778706  0.3509498751355383  0.1996688148363467
  0.8540592774916654  0.3037194854573343  0.1999919224041318
  0.2993072405674926  0.7490134307892212  0.1999989848361680
  0.3466386746530913  0.7778595016067114  0.2002106706148121
  0.2520542041862578  0.7779666225430206  0.1997402318686833
  0.3467028962848991  0.8295778747856225  0.1996695061039188
  0.2521172713402085  0.8296894509570660  0.2002694716314255
  0.2994401273099820  0.8585406261803595  0.1999952528723082
  0.2444438020304558  0.2487850872354982  0.2009971079347059
  0.2444617183214823  0.3585858488770648  0.1990192535269592
  0.3541605677826933  0.2488179169034554  0.1989723212922319
  0.3541311153338648  0.3586023407228690  0.2010616811518072
  0.6475393712326534  0.3036779199448860  0.1999943953774314
  0.9510839339269959  0.3038443373995780  0.1999605560298398
  0.2993618614142889  0.6520491164066531  0.1999518832863900
  0.2994603884253402  0.9555060813451167  0.1999977332922413
  0.1979484246297517  0.1303832047236396  0.1982350698069082
  0.1259572085936827  0.2023561249987554  0.1982369426540093
  0.4007007279140888  0.1304320542184053  0.2016994306498570
  0.4726602250683274  0.2024442961094716  0.2017028920026493
  0.1978928981718621  0.4769477373403043  0.2016811025964712
  0.1259366891876462  0.4048548839100889  0.2017093745462766
  0.4726424553445178  0.4049237873895558  0.1982454227311393
  0.4007327327789834  0.4769690364511434  0.1982490337041070
  0.3343833196495351  0.1080527598181470  0.1220470493465476
  0.2638210924049675  0.1079768623339310  0.2777683340809290
  0.3350036341798958  0.0136893280718241  0.1219978030303170
  0.2634367007858708  0.0136153474060936  0.2778073837633752
  0.2641906083694542  0.4995182756871034  0.1220908779526515
  0.4949705770271159  0.2686258688429258  0.1220657494515841
  0.1037787049682010  0.3387284269020852  0.1220724454721200
  0.3347440412161581  0.4995538063235844  0.2778431347217794
  0.4949928420898638  0.3390852721884564  0.2778415380944281
  0.1036105542487476  0.2682131691948320  0.2777928376192443
  0.2637252901306806  0.5938812431001802  0.1220329468360869
  0.5894371570407473  0.2681622825392044  0.1220321960210620
  0.0093109881215008  0.3394144468578114  0.1220089980845685
  0.3351905797987687  0.5939079726088603  0.2778620904364029
  0.5894594548571545  0.3394900673459672  0.2778898661362849
  0.0091579806352044  0.2679652394865356  0.2778294083224271
  0.7529928286790900  0.2204286697514318  0.1997332204799515
  0.7528108107551755  0.3867784442584161  0.2001572645897217
  0.8457917578854258  0.2205476932929083  0.2003410037008965
  0.8456070076503520  0.3868645652342577  0.1995486343905167
  0.3825492234884890  0.7573375728201747  0.2002187316139329
  0.2161180885247551  0.7575037777540925  0.1996466497160940
  0.3826531552757433  0.8500249132837646  0.1995686948767666
  0.2162198460352988  0.8502157766858149  0.2002919777044277
  0.2993015817748036  0.3036974741969525  0.2000068420206330
 
  0.00000000E+00  0.00000000E+00  0.00000000E+00
  0.00000000E+00  0.00000000E+00  0.00000000E+00
  0.00000000E+00  0.00000000E+00  0.00000000E+00
  0.00000000E+00  0.00000000E+00  0.00000000E+00
  0.00000000E+00  0.00000000E+00  0.00000000E+00
  0.00000000E+00  0.00000000E+00  0.00000000E+00
  0.00000000E+00  0.00000000E+00  0.00000000E+00
  0.00000000E+00  0.00000000E+00  0.00000000E+00
  0.00000000E+00  0.00000000E+00  0.00000000E+00
  0.00000000E+00  0.00000000E+00  0.00000000E+00
  0.00000000E+00  0.00000000E+00  0.00000000E+00
  0.00000000E+00  0.00000000E+00  0.00000000E+00
  0.00000000E+00  0.00000000E+00  0.00000000E+00
  0.00000000E+00  0.00000000E+00  0.00000000E+00
  0.00000000E+00  0.00000000E+00  0.00000000E+00
  0.00000000E+00  0.00000000E+00  0.00000000E+00
  0.00000000E+00  0.00000000E+00  0.00000000E+00
  0.00000000E+00  0.00000000E+00  0.00000000E+00
  0.00000000E+00  0.00000000E+00  0.00000000E+00
  0.00000000E+00  0.00000000E+00  0.00000000E+00
  0.00000000E+00  0.00000000E+00  0.00000000E+00
  0.00000000E+00  0.00000000E+00  0.00000000E+00
  0.00000000E+00  0.00000000E+00  0.00000000E+00
  0.00000000E+00  0.00000000E+00  0.00000000E+00
  0.00000000E+00  0.00000000E+00  0.00000000E+00
  0.00000000E+00  0.00000000E+00  0.00000000E+00
  0.00000000E+00  0.00000000E+00  0.00000000E+00
  0.00000000E+00  0.00000000E+00  0.00000000E+00
  0.00000000E+00  0.00000000E+00  0.00000000E+00
  0.00000000E+00  0.00000000E+00  0.00000000E+00
  0.00000000E+00  0.00000000E+00  0.00000000E+00
  0.00000000E+00  0.00000000E+00  0.00000000E+00
  0.00000000E+00  0.00000000E+00  0.00000000E+00
  0.00000000E+00  0.00000000E+00  0.00000000E+00
  0.00000000E+00  0.00000000E+00  0.00000000E+00
  0.00000000E+00  0.00000000E+00  0.00000000E+00
  0.00000000E+00  0.00000000E+00  0.00000000E+00
  0.00000000E+00  0.00000000E+00  0.00000000E+00
  0.00000000E+00  0.00000000E+00  0.00000000E+00
  0.00000000E+00  0.00000000E+00  0.00000000E+00
  0.00000000E+00  0.00000000E+00  0.00000000E+00
  0.00000000E+00  0.00000000E+00  0.00000000E+00
  0.00000000E+00  0.00000000E+00  0.00000000E+00
  0.00000000E+00  0.00000000E+00  0.00000000E+00
  0.00000000E+00  0.00000000E+00  0.00000000E+00
  0.00000000E+00  0.00000000E+00  0.00000000E+00
  0.00000000E+00  0.00000000E+00  0.00000000E+00
  0.00000000E+00  0.00000000E+00  0.00000000E+00
  0.00000000E+00  0.00000000E+00  0.00000000E+00
  0.00000000E+00  0.00000000E+00  0.00000000E+00
  0.00000000E+00  0.00000000E+00  0.00000000E+00
  0.00000000E+00  0.00000000E+00  0.00000000E+00
  0.00000000E+00  0.00000000E+00  0.00000000E+00
  0.00000000E+00  0.00000000E+00  0.00000000E+00
  0.00000000E+00  0.00000000E+00  0.00000000E+00
  0.00000000E+00  0.00000000E+00  0.00000000E+00
  0.00000000E+00  0.00000000E+00  0.00000000E+00
  0.00000000E+00  0.00000000E+00  0.00000000E+00
  0.00000000E+00  0.00000000E+00  0.00000000E+00
  0.00000000E+00  0.00000000E+00  0.00000000E+00
  0.00000000E+00  0.00000000E+00  0.00000000E+00
  0.00000000E+00  0.00000000E+00  0.00000000E+00
  0.00000000E+00  0.00000000E+00  0.00000000E+00
  0.00000000E+00  0.00000000E+00  0.00000000E+00
  0.00000000E+00  0.00000000E+00  0.00000000E+00
  0.00000000E+00  0.00000000E+00  0.00000000E+00
  0.00000000E+00  0.00000000E+00  0.00000000E+00
  0.00000000E+00  0.00000000E+00  0.00000000E+00
  0.00000000E+00  0.00000000E+00  0.00000000E+00
  0.00000000E+00  0.00000000E+00  0.00000000E+00
  0.00000000E+00  0.00000000E+00  0.00000000E+00
  0.00000000E+00  0.00000000E+00  0.00000000E+00
  0.00000000E+00  0.00000000E+00  0.00000000E+00
  0.00000000E+00  0.00000000E+00  0.00000000E+00
  0.00000000E+00  0.00000000E+00  0.00000000E+00
  0.00000000E+00  0.00000000E+00  0.00000000E+00
  0.00000000E+00  0.00000000E+00  0.00000000E+00
  0.00000000E+00  0.00000000E+00  0.00000000E+00
  0.00000000E+00  0.00000000E+00  0.00000000E+00
  0.00000000E+00  0.00000000E+00  0.00000000E+00
  0.00000000E+00  0.00000000E+00  0.00000000E+00
  0.00000000E+00  0.00000000E+00  0.00000000E+00
  0.00000000E+00  0.00000000E+00  0.00000000E+00
  0.00000000E+00  0.00000000E+00  0.00000000E+00
  0.00000000E+00  0.00000000E+00  0.00000000E+00
  0.00000000E+00  0.00000000E+00  0.00000000E+00
  0.00000000E+00  0.00000000E+00  0.00000000E+00
  0.00000000E+00  0.00000000E+00  0.00000000E+00
  0.00000000E+00  0.00000000E+00  0.00000000E+00
  0.00000000E+00  0.00000000E+00  0.00000000E+00
  0.00000000E+00  0.00000000E+00  0.00000000E+00
  0.00000000E+00  0.00000000E+00  0.00000000E+00
  0.00000000E+00  0.00000000E+00  0.00000000E+00
  0.00000000E+00  0.00000000E+00  0.00000000E+00
  0.00000000E+00  0.00000000E+00  0.00000000E+00
  0.00000000E+00  0.00000000E+00  0.00000000E+00
  0.00000000E+00  0.00000000E+00  0.00000000E+00
  0.00000000E+00  0.00000000E+00  0.00000000E+00
  0.00000000E+00  0.00000000E+00  0.00000000E+00
  0.00000000E+00  0.00000000E+00  0.00000000E+00
  0.00000000E+00  0.00000000E+00  0.00000000E+00
