 C  N Fe                                
   1.00000000000000     
    12.4810486149821145    0.0000000000000000    0.0000000000000000
    -0.0000000000000004   12.7441516669202759    0.0000000000000000
     0.0000000000000003    0.0000000000000000   20.0000000000000000
   C    N    Fe
    54     4     1
Direct
  0.0522078815728264  0.0474723062484088  0.1583348944441525
  0.1526563570195236  0.1022359796191594  0.1583282949181140
  0.1520413032243297  0.2136482948067950  0.1582721385148318
  0.0521992209833826  0.2687585477918333  0.1582282681539056
  0.2534348949472687  0.0479315901674511  0.1583737586085761
  0.3535374573463557  0.1040306689268462  0.1584060560961547
  0.3524706822224601  0.2166021956683508  0.1583697397570774
  0.2511122045285887  0.2692880764666583  0.1582979434705791
  0.4537650531395414  0.0486504282338487  0.1584340954172347
  0.5522079229856374  0.1074393539336285  0.1584462752575320
  0.5522084170219657  0.2221956010044579  0.1584138533895327
  0.4504549128933064  0.2770381497762742  0.1583767211737097
  0.6506542517927372  0.0486554836315563  0.1584387901969109
  0.7508758139283742  0.1040306249700436  0.1584136275099510
  0.7519354404359646  0.2166015072637890  0.1583785126126642
  0.6539528739564844  0.2770368649472843  0.1583858720634126
  0.8509725294137027  0.0479273830079450  0.1583855633956333
  0.9517517791932306  0.1022323944572463  0.1583287275196739
  0.9523616228070111  0.2136443082855450  0.1582661584095746
  0.8532878164694324  0.2692866853975460  0.1582925847225027
  0.0521989670172687  0.3801529650928615  0.1581723665015531
  0.1502671669804556  0.4363193612377003  0.1581585279944377
  0.1502817062483999  0.5474463785435901  0.1581460004553961
  0.0522061255662010  0.6036151306831172  0.1581502127180201
  0.2489834860280027  0.3806944621699415  0.1582391210759937
  0.3463180840373283  0.4360071221131108  0.1582747190712794
  0.3463300736504422  0.5477461652505795  0.1582786586213487
  0.2489839324169409  0.6030429811329157  0.1582277611141265
  0.7580946222442790  0.4360074414045556  0.1582844722169980
  0.7580907634905785  0.5477452880477074  0.1582874403598851
  0.8554286800405251  0.3806959392069373  0.1582411564384500
  0.9541442935727318  0.4363202292224955  0.1581597400320760
  0.9541325533681757  0.5474466111103666  0.1581455848259665
  0.8554357763583837  0.6030509413290730  0.1582279253546304
  0.0522125301920369  0.7150006545210132  0.1582201972671555
  0.1520655133125786  0.7701136244756270  0.1582693954479524
  0.0522100873088789  0.9362721361238329  0.1583253104421800
  0.2511106999670787  0.7144484841460184  0.1582840118244064
  0.3524607015329124  0.7671266799041447  0.1583470799561510
  0.3535234897671060  0.8797272285181634  0.1583948652682778
  0.2534263140852957  0.9358170770069805  0.1583721307918253
  0.4504539433781787  0.7067079980676922  0.1583625463575729
  0.5522106088556384  0.7615642005894330  0.1583986133492203
  0.5522119915035688  0.8763144019525697  0.1584246176146209
  0.4537634616593351  0.9350521783907340  0.1584324845432690
  0.6539649654941186  0.7067043908057400  0.1583705057789828
  0.7519516184940116  0.7671271383206246  0.1583525737257858
  0.7508861709639945  0.8797259497599015  0.1583999785768881
  0.6506505406523218  0.9350543493000529  0.1584312695765746
  0.8533084203665737  0.7144549935613327  0.1582773020035830
  0.9523545051547302  0.7701194651261360  0.1582626360043662
  0.8509829096669819  0.9358142509541025  0.1583777569315146
  0.1526485120182244  0.8815095254057326  0.1583174210903380
  0.9517652508895793  0.8815147994636092  0.1583179363022467
  0.4447615947833867  0.3859778288292546  0.1583458261178379
  0.4447662318692664  0.5977849558086064  0.1583516518002384
  0.6596493332628555  0.3859815462291110  0.1583580519074701
  0.6596502506250914  0.5977820723969032  0.1583567929794896
  0.5522057772839091  0.4918866053099862  0.1583841259301622
 
  0.00000000E+00  0.00000000E+00  0.00000000E+00
  0.00000000E+00  0.00000000E+00  0.00000000E+00
  0.00000000E+00  0.00000000E+00  0.00000000E+00
  0.00000000E+00  0.00000000E+00  0.00000000E+00
  0.00000000E+00  0.00000000E+00  0.00000000E+00
  0.00000000E+00  0.00000000E+00  0.00000000E+00
  0.00000000E+00  0.00000000E+00  0.00000000E+00
  0.00000000E+00  0.00000000E+00  0.00000000E+00
  0.00000000E+00  0.00000000E+00  0.00000000E+00
  0.00000000E+00  0.00000000E+00  0.00000000E+00
  0.00000000E+00  0.00000000E+00  0.00000000E+00
  0.00000000E+00  0.00000000E+00  0.00000000E+00
  0.00000000E+00  0.00000000E+00  0.00000000E+00
  0.00000000E+00  0.00000000E+00  0.00000000E+00
  0.00000000E+00  0.00000000E+00  0.00000000E+00
  0.00000000E+00  0.00000000E+00  0.00000000E+00
  0.00000000E+00  0.00000000E+00  0.00000000E+00
  0.00000000E+00  0.00000000E+00  0.00000000E+00
  0.00000000E+00  0.00000000E+00  0.00000000E+00
  0.00000000E+00  0.00000000E+00  0.00000000E+00
  0.00000000E+00  0.00000000E+00  0.00000000E+00
  0.00000000E+00  0.00000000E+00  0.00000000E+00
  0.00000000E+00  0.00000000E+00  0.00000000E+00
  0.00000000E+00  0.00000000E+00  0.00000000E+00
  0.00000000E+00  0.00000000E+00  0.00000000E+00
  0.00000000E+00  0.00000000E+00  0.00000000E+00
  0.00000000E+00  0.00000000E+00  0.00000000E+00
  0.00000000E+00  0.00000000E+00  0.00000000E+00
  0.00000000E+00  0.00000000E+00  0.00000000E+00
  0.00000000E+00  0.00000000E+00  0.00000000E+00
  0.00000000E+00  0.00000000E+00  0.00000000E+00
  0.00000000E+00  0.00000000E+00  0.00000000E+00
  0.00000000E+00  0.00000000E+00  0.00000000E+00
  0.00000000E+00  0.00000000E+00  0.00000000E+00
  0.00000000E+00  0.00000000E+00  0.00000000E+00
  0.00000000E+00  0.00000000E+00  0.00000000E+00
  0.00000000E+00  0.00000000E+00  0.00000000E+00
  0.00000000E+00  0.00000000E+00  0.00000000E+00
  0.00000000E+00  0.00000000E+00  0.00000000E+00
  0.00000000E+00  0.00000000E+00  0.00000000E+00
  0.00000000E+00  0.00000000E+00  0.00000000E+00
  0.00000000E+00  0.00000000E+00  0.00000000E+00
  0.00000000E+00  0.00000000E+00  0.00000000E+00
  0.00000000E+00  0.00000000E+00  0.00000000E+00
  0.00000000E+00  0.00000000E+00  0.00000000E+00
  0.00000000E+00  0.00000000E+00  0.00000000E+00
  0.00000000E+00  0.00000000E+00  0.00000000E+00
  0.00000000E+00  0.00000000E+00  0.00000000E+00
  0.00000000E+00  0.00000000E+00  0.00000000E+00
  0.00000000E+00  0.00000000E+00  0.00000000E+00
  0.00000000E+00  0.00000000E+00  0.00000000E+00
  0.00000000E+00  0.00000000E+00  0.00000000E+00
  0.00000000E+00  0.00000000E+00  0.00000000E+00
  0.00000000E+00  0.00000000E+00  0.00000000E+00
  0.00000000E+00  0.00000000E+00  0.00000000E+00
  0.00000000E+00  0.00000000E+00  0.00000000E+00
  0.00000000E+00  0.00000000E+00  0.00000000E+00
  0.00000000E+00  0.00000000E+00  0.00000000E+00
  0.00000000E+00  0.00000000E+00  0.00000000E+00
