 C  N  H  V                             
   1.00000000000000     
    26.4123171264345942    0.0000000000000000    0.0000000000000000
     0.0000000000000000   26.4188421099882582    0.0000000000000000
     0.0000000000000000    0.0000000000000000   25.0000000000000000
   C    N    H    V 
    60     8    32     1
Direct
  0.2517799314426318  0.1961700679053324  0.2008105443730915
  0.2034130965570037  0.1709789621594097  0.1992838923808478
  0.1666130559697672  0.2077835050015493  0.1992824116059564
  0.1918163675080979  0.2561349331218794  0.2008292337624574
  0.3468382582111929  0.1961826689550993  0.1991685705064998
  0.3952112942216215  0.1710138128276419  0.2006657831996715
  0.4068006145754300  0.2561768904520054  0.1991740455555252
  0.4320054271436685  0.2078340800055961  0.2006702987245077
  0.2517797688052221  0.4112303567382149  0.1992208054730948
  0.1918346403338503  0.3511927903120471  0.1992267152317860
  0.2033890760367592  0.4363639549608608  0.2006961310719233
  0.1666134501877720  0.3995230012211602  0.2007110105895401
  0.4067825165224693  0.3512276713143200  0.2008246860823456
  0.4319991383202633  0.3995644858726681  0.1992916915427197
  0.3468324733143529  0.4112372281150218  0.2008227278359952
  0.3952187507299750  0.4363908272370245  0.1992832231181350
  0.2993097900136827  0.4359803156602984  0.2000329792596452
  0.1671166097943811  0.3036581991904490  0.2000361991789398
  0.2993053150297093  0.1714628368903752  0.1999947138143181
  0.2992686034623132  0.1148178239581496  0.1999789106658137
  0.3195289250234289  0.0871937790471583  0.1565153845601126
  0.2789315877510802  0.0871587042191476  0.2433840448679228
  0.3197545917472708  0.0343716124522126  0.1560931750075249
  0.2787840703065529  0.0343346824044474  0.2437885784398291
  0.2993374547919666  0.0072683037145172  0.1999627907309138
  0.4315072303585071  0.3037101295247494  0.2000078655025774
  0.2993424527560147  0.4926585465901113  0.2000272876282812
  0.4881759644451271  0.3037378102565627  0.2000106952502156
  0.1104535607273835  0.3036319885144126  0.2000029323089062
  0.2791081995201140  0.5203211130364271  0.1565652010982622
  0.5158260894690528  0.2835189369442133  0.1565363412825245
  0.0828392574776255  0.3238859254525716  0.1565254808015708
  0.3196604408594634  0.5203410025042337  0.2434367952610257
  0.5158349704354982  0.3240160269977691  0.2434521973372117
  0.0827612013453772  0.2833398067556291  0.2434088660159555
  0.2789485877736413  0.5731498978868493  0.1561292075883672
  0.5686626565511778  0.2833386342121374  0.1561207920319923
  0.0300014223134830  0.3241362350453770  0.1560914116164961
  0.3198618751876618  0.5731752037351678  0.2438315128880305
  0.5686755888277166  0.3241888100941152  0.2438673290098175
  0.0299193668508598  0.2832261106647128  0.2438033022580328
  0.2993826315675691  0.6002647023503964  0.1999827063534736
  0.5957573932195852  0.3037268291556084  0.2000077217685142
  0.0028608737467718  0.3037449114468197  0.1999522623485215
  0.6930753259241547  0.3035919520995297  0.2000346875393311
  0.9055408412469361  0.3037744992681171  0.2000059821152526
  0.2992820937116899  0.6975732934954713  0.2000422208002992
  0.2994736802001610  0.9099853840687582  0.2000137986724329
  0.7446559130415201  0.3035983866439056  0.1999952995256339
  0.7734855604623211  0.2564637252722666  0.1998117791397117
  0.7733876408613957  0.3507937192948774  0.2001449498623711
  0.8252160351936735  0.2565233557353881  0.2002464894023289
  0.8251153754481821  0.3508497099693596  0.1997049681832433
  0.8539533598361855  0.3037186605101120  0.1999899864233513
  0.2993046605544015  0.7491267494449365  0.1999996482804982
  0.3465077430822366  0.7778778084224395  0.2001725388301564
  0.2521687759526407  0.7779870640346059  0.1997771630036227
  0.3465712027452063  0.8295782869684509  0.1997192698360515
  0.2522330134445994  0.8296893547890404  0.2002214033835070
  0.2994386487913928  0.8584303864585681  0.1999891463181665
  0.2443785667519354  0.2487251411788370  0.2014478235810907
  0.2444006831577110  0.3586537152785355  0.1986165102462919
  0.3542341808812062  0.2487471339470099  0.1985536723652291
  0.3542174110431326  0.3586654600448735  0.2014520660010003
  0.6476548489857772  0.3036780365905033  0.1999873689931706
  0.9509579514915668  0.3038036387536855  0.1999065637296026
  0.2993589214035891  0.6521577321774906  0.1999059554862552
  0.2994334519948071  0.9553796670464031  0.1999906125703120
  0.1975847560194187  0.1303067714975467  0.1978019272121015
  0.1259316905597500  0.2019643639659075  0.1977818780209654
  0.4010618767679598  0.1303441182079471  0.2021207668537491
  0.4726901544494719  0.2020370990915180  0.2021346045911146
  0.1975247276989994  0.4770321644370134  0.2021104005356991
  0.1259234386638917  0.4052838557222416  0.2021457954581717
  0.4726862885388223  0.4053420708683986  0.1978217454813906
  0.4010857793643650  0.4770571047398321  0.1978018237507922
  0.3345689747948136  0.1077839440511210  0.1221227627568140
  0.2637279507669854  0.1077091461953859  0.2777238796190617
  0.3349558009440394  0.0135637551193034  0.1219583733504541
  0.2635184870324491  0.0134908669580452  0.2778678112146542
  0.2640402766895532  0.4997712353421863  0.1221606727817305
  0.4952557032018972  0.2684795888072941  0.1221300718098852
  0.1034554931282329  0.3389056144287869  0.1221387433800542
  0.3348233315898605  0.4998078164625219  0.2778080851043005
  0.4952692576289834  0.3391675707704934  0.2778083681389133
  0.1033051652932342  0.2681411458877891  0.2777573688623097
  0.2637850331262602  0.5939732755109201  0.1219844269257130
  0.5895094866587313  0.2682014375583597  0.1219779152463343
  0.0092083089085891  0.3393533213153038  0.1219523447199481
  0.3351171514375487  0.5940060287156622  0.2779268756202183
  0.5895211940999252  0.3394152121930604  0.2779685078544755
  0.0090620168634340  0.2680139805777363  0.2779011261708708
  0.7530636617319973  0.2205222604281324  0.1997196967248033
  0.7528808002273506  0.3866861062344677  0.2001854326927238
  0.8457138421129955  0.2206277620042726  0.2003680864987074
  0.8455317803380353  0.3867908768499727  0.1995321102500369
  0.3824183459831561  0.7573998712909589  0.2002330821652545
  0.2162080299588263  0.7575962355975380  0.1996459085034110
  0.3825292430588840  0.8499723571472068  0.1995549946699571
  0.2163287285988236  0.8501798420676717  0.2003154739291193
  0.2993037796028110  0.3037012248944163  0.2000351540886256
 
  0.00000000E+00  0.00000000E+00  0.00000000E+00
  0.00000000E+00  0.00000000E+00  0.00000000E+00
  0.00000000E+00  0.00000000E+00  0.00000000E+00
  0.00000000E+00  0.00000000E+00  0.00000000E+00
  0.00000000E+00  0.00000000E+00  0.00000000E+00
  0.00000000E+00  0.00000000E+00  0.00000000E+00
  0.00000000E+00  0.00000000E+00  0.00000000E+00
  0.00000000E+00  0.00000000E+00  0.00000000E+00
  0.00000000E+00  0.00000000E+00  0.00000000E+00
  0.00000000E+00  0.00000000E+00  0.00000000E+00
  0.00000000E+00  0.00000000E+00  0.00000000E+00
  0.00000000E+00  0.00000000E+00  0.00000000E+00
  0.00000000E+00  0.00000000E+00  0.00000000E+00
  0.00000000E+00  0.00000000E+00  0.00000000E+00
  0.00000000E+00  0.00000000E+00  0.00000000E+00
  0.00000000E+00  0.00000000E+00  0.00000000E+00
  0.00000000E+00  0.00000000E+00  0.00000000E+00
  0.00000000E+00  0.00000000E+00  0.00000000E+00
  0.00000000E+00  0.00000000E+00  0.00000000E+00
  0.00000000E+00  0.00000000E+00  0.00000000E+00
  0.00000000E+00  0.00000000E+00  0.00000000E+00
  0.00000000E+00  0.00000000E+00  0.00000000E+00
  0.00000000E+00  0.00000000E+00  0.00000000E+00
  0.00000000E+00  0.00000000E+00  0.00000000E+00
  0.00000000E+00  0.00000000E+00  0.00000000E+00
  0.00000000E+00  0.00000000E+00  0.00000000E+00
  0.00000000E+00  0.00000000E+00  0.00000000E+00
  0.00000000E+00  0.00000000E+00  0.00000000E+00
  0.00000000E+00  0.00000000E+00  0.00000000E+00
  0.00000000E+00  0.00000000E+00  0.00000000E+00
  0.00000000E+00  0.00000000E+00  0.00000000E+00
  0.00000000E+00  0.00000000E+00  0.00000000E+00
  0.00000000E+00  0.00000000E+00  0.00000000E+00
  0.00000000E+00  0.00000000E+00  0.00000000E+00
  0.00000000E+00  0.00000000E+00  0.00000000E+00
  0.00000000E+00  0.00000000E+00  0.00000000E+00
  0.00000000E+00  0.00000000E+00  0.00000000E+00
  0.00000000E+00  0.00000000E+00  0.00000000E+00
  0.00000000E+00  0.00000000E+00  0.00000000E+00
  0.00000000E+00  0.00000000E+00  0.00000000E+00
  0.00000000E+00  0.00000000E+00  0.00000000E+00
  0.00000000E+00  0.00000000E+00  0.00000000E+00
  0.00000000E+00  0.00000000E+00  0.00000000E+00
  0.00000000E+00  0.00000000E+00  0.00000000E+00
  0.00000000E+00  0.00000000E+00  0.00000000E+00
  0.00000000E+00  0.00000000E+00  0.00000000E+00
  0.00000000E+00  0.00000000E+00  0.00000000E+00
  0.00000000E+00  0.00000000E+00  0.00000000E+00
  0.00000000E+00  0.00000000E+00  0.00000000E+00
  0.00000000E+00  0.00000000E+00  0.00000000E+00
  0.00000000E+00  0.00000000E+00  0.00000000E+00
  0.00000000E+00  0.00000000E+00  0.00000000E+00
  0.00000000E+00  0.00000000E+00  0.00000000E+00
  0.00000000E+00  0.00000000E+00  0.00000000E+00
  0.00000000E+00  0.00000000E+00  0.00000000E+00
  0.00000000E+00  0.00000000E+00  0.00000000E+00
  0.00000000E+00  0.00000000E+00  0.00000000E+00
  0.00000000E+00  0.00000000E+00  0.00000000E+00
  0.00000000E+00  0.00000000E+00  0.00000000E+00
  0.00000000E+00  0.00000000E+00  0.00000000E+00
  0.00000000E+00  0.00000000E+00  0.00000000E+00
  0.00000000E+00  0.00000000E+00  0.00000000E+00
  0.00000000E+00  0.00000000E+00  0.00000000E+00
  0.00000000E+00  0.00000000E+00  0.00000000E+00
  0.00000000E+00  0.00000000E+00  0.00000000E+00
  0.00000000E+00  0.00000000E+00  0.00000000E+00
  0.00000000E+00  0.00000000E+00  0.00000000E+00
  0.00000000E+00  0.00000000E+00  0.00000000E+00
  0.00000000E+00  0.00000000E+00  0.00000000E+00
  0.00000000E+00  0.00000000E+00  0.00000000E+00
  0.00000000E+00  0.00000000E+00  0.00000000E+00
  0.00000000E+00  0.00000000E+00  0.00000000E+00
  0.00000000E+00  0.00000000E+00  0.00000000E+00
  0.00000000E+00  0.00000000E+00  0.00000000E+00
  0.00000000E+00  0.00000000E+00  0.00000000E+00
  0.00000000E+00  0.00000000E+00  0.00000000E+00
  0.00000000E+00  0.00000000E+00  0.00000000E+00
  0.00000000E+00  0.00000000E+00  0.00000000E+00
  0.00000000E+00  0.00000000E+00  0.00000000E+00
  0.00000000E+00  0.00000000E+00  0.00000000E+00
  0.00000000E+00  0.00000000E+00  0.00000000E+00
  0.00000000E+00  0.00000000E+00  0.00000000E+00
  0.00000000E+00  0.00000000E+00  0.00000000E+00
  0.00000000E+00  0.00000000E+00  0.00000000E+00
  0.00000000E+00  0.00000000E+00  0.00000000E+00
  0.00000000E+00  0.00000000E+00  0.00000000E+00
  0.00000000E+00  0.00000000E+00  0.00000000E+00
  0.00000000E+00  0.00000000E+00  0.00000000E+00
  0.00000000E+00  0.00000000E+00  0.00000000E+00
  0.00000000E+00  0.00000000E+00  0.00000000E+00
  0.00000000E+00  0.00000000E+00  0.00000000E+00
  0.00000000E+00  0.00000000E+00  0.00000000E+00
  0.00000000E+00  0.00000000E+00  0.00000000E+00
  0.00000000E+00  0.00000000E+00  0.00000000E+00
  0.00000000E+00  0.00000000E+00  0.00000000E+00
  0.00000000E+00  0.00000000E+00  0.00000000E+00
  0.00000000E+00  0.00000000E+00  0.00000000E+00
  0.00000000E+00  0.00000000E+00  0.00000000E+00
  0.00000000E+00  0.00000000E+00  0.00000000E+00
  0.00000000E+00  0.00000000E+00  0.00000000E+00
  0.00000000E+00  0.00000000E+00  0.00000000E+00
