 C  N  V                                
   1.00000000000000     
    12.4723245401682856    0.0000000000000000    0.0000000000000000
    -0.0000000000000004   12.8964460826387448    0.0000000000000000
     0.0000000000000003    0.0000000000000000   19.8713392819153718
   C    N    V 
    57     1     1
Direct
  0.0520112722022888  0.0476923453449143  0.1594074718147331
  0.1517085330830177  0.1026237750499318  0.1593761023444157
  0.1516383241822555  0.2135292254429266  0.1593047977973035
  0.0522571596940341  0.2691250322102812  0.1592611290874890
  0.2513464525004451  0.0468071787442332  0.1594293145429578
  0.3515457526719019  0.1004567481876083  0.1594358521222936
  0.3505546920328464  0.2109038954945104  0.1593862234340417
  0.2514498864371897  0.2683076379987386  0.1593189611513293
  0.4527650158571332  0.0467813379072036  0.1594636572957467
  0.5530805162754912  0.1035119694519932  0.1594646030919352
  0.5530711186443706  0.2141023922528781  0.1594283315762977
  0.4498836932930291  0.2649352748983453  0.1593439496843295
  0.6530972517115710  0.0472810322106297  0.1594530934165127
  0.7524586745828565  0.1033886578849051  0.1593949789644987
  0.7525289397641590  0.2154769968055850  0.1593558063273118
  0.6534146341181841  0.2733137973240223  0.1593944131760793
  0.8521483802992993  0.0476106301180721  0.1593853680684823
  0.9522169098899949  0.1029035355106804  0.1593620055690203
  0.9525517279366882  0.2140054288026412  0.1592893392555095
  0.8530508294306565  0.2700055206680677  0.1592936390670905
  0.0529339328475150  0.3807054907350111  0.1592068961997046
  0.1516525494760352  0.4361617317883341  0.1592171297214935
  0.1516849062700179  0.5475546583190253  0.1592163562475398
  0.0529528812229484  0.6032185837701838  0.1592048448460705
  0.2503445869664296  0.3798525705088624  0.1592825342457453
  0.3502754433725437  0.4334365316160635  0.1592461710562330
  0.3504159156091802  0.5500623663513979  0.1592608344873664
  0.2504321568893539  0.6037140603402762  0.1592876551407410
  0.7567179809741506  0.4367563007503263  0.1593053410433505
  0.7572917294825107  0.5503695834804366  0.1593110123197071
  0.8553472696490673  0.3812804909501305  0.1592472815032679
  0.9544701690204144  0.4365313078336741  0.1591799115318944
  0.9545149404134795  0.5475824218120584  0.1591758214636447
  0.8558082250420305  0.6042705229931573  0.1592339627110458
  0.0527148240570020  0.7148015980044053  0.1592613402916139
  0.1519221546004646  0.7702309653248807  0.1592997974558261
  0.0521395238274908  0.9365980856502265  0.1594260164303978
  0.2517116023960501  0.7151516139013829  0.1593104898612525
  0.3508282449265642  0.7722232913001290  0.1593744941741607
  0.3516727477363895  0.8825625804634946  0.1594121015036870
  0.2514359506919272  0.9366489517932730  0.1594084084516572
  0.4502390377625431  0.7178130461647119  0.1593597855312876
  0.5538915325827720  0.7677045417340257  0.1594384449849542
  0.5538695707489597  0.8788838690810769  0.1594630336880100
  0.4530165773496442  0.9356304722445978  0.1594428894167196
  0.6553422704075376  0.7093048443629598  0.1594198269067088
  0.7534367943294318  0.7684167007264620  0.1593797381633112
  0.7526300098130982  0.8803392262614056  0.1594003181313189
  0.6531776200749676  0.9359416793227396  0.1594520798182834
  0.8542093039237303  0.7150188124353828  0.1592973724864543
  0.9533374124208663  0.7705844263347040  0.1593049294188726
  0.8522467192975287  0.9362760363570176  0.1593982542938784
  0.1517514907541480  0.8811945516761159  0.1593792785616816
  0.9525533567114491  0.8814513277690175  0.1593857992924061
  0.4450834286913988  0.3725113824023886  0.1592226451336196
  0.4454216182554825  0.6105171851986161  0.1592470127378789
  0.6571057621055122  0.3849324332613293  0.1593765218433637
  0.6603204136924197  0.6012162756961578  0.1594127096368604
  0.5324996709890085  0.4903670650933079  0.1595819809525319
 
  0.00000000E+00  0.00000000E+00  0.00000000E+00
  0.00000000E+00  0.00000000E+00  0.00000000E+00
  0.00000000E+00  0.00000000E+00  0.00000000E+00
  0.00000000E+00  0.00000000E+00  0.00000000E+00
  0.00000000E+00  0.00000000E+00  0.00000000E+00
  0.00000000E+00  0.00000000E+00  0.00000000E+00
  0.00000000E+00  0.00000000E+00  0.00000000E+00
  0.00000000E+00  0.00000000E+00  0.00000000E+00
  0.00000000E+00  0.00000000E+00  0.00000000E+00
  0.00000000E+00  0.00000000E+00  0.00000000E+00
  0.00000000E+00  0.00000000E+00  0.00000000E+00
  0.00000000E+00  0.00000000E+00  0.00000000E+00
  0.00000000E+00  0.00000000E+00  0.00000000E+00
  0.00000000E+00  0.00000000E+00  0.00000000E+00
  0.00000000E+00  0.00000000E+00  0.00000000E+00
  0.00000000E+00  0.00000000E+00  0.00000000E+00
  0.00000000E+00  0.00000000E+00  0.00000000E+00
  0.00000000E+00  0.00000000E+00  0.00000000E+00
  0.00000000E+00  0.00000000E+00  0.00000000E+00
  0.00000000E+00  0.00000000E+00  0.00000000E+00
  0.00000000E+00  0.00000000E+00  0.00000000E+00
  0.00000000E+00  0.00000000E+00  0.00000000E+00
  0.00000000E+00  0.00000000E+00  0.00000000E+00
  0.00000000E+00  0.00000000E+00  0.00000000E+00
  0.00000000E+00  0.00000000E+00  0.00000000E+00
  0.00000000E+00  0.00000000E+00  0.00000000E+00
  0.00000000E+00  0.00000000E+00  0.00000000E+00
  0.00000000E+00  0.00000000E+00  0.00000000E+00
  0.00000000E+00  0.00000000E+00  0.00000000E+00
  0.00000000E+00  0.00000000E+00  0.00000000E+00
  0.00000000E+00  0.00000000E+00  0.00000000E+00
  0.00000000E+00  0.00000000E+00  0.00000000E+00
  0.00000000E+00  0.00000000E+00  0.00000000E+00
  0.00000000E+00  0.00000000E+00  0.00000000E+00
  0.00000000E+00  0.00000000E+00  0.00000000E+00
  0.00000000E+00  0.00000000E+00  0.00000000E+00
  0.00000000E+00  0.00000000E+00  0.00000000E+00
  0.00000000E+00  0.00000000E+00  0.00000000E+00
  0.00000000E+00  0.00000000E+00  0.00000000E+00
  0.00000000E+00  0.00000000E+00  0.00000000E+00
  0.00000000E+00  0.00000000E+00  0.00000000E+00
  0.00000000E+00  0.00000000E+00  0.00000000E+00
  0.00000000E+00  0.00000000E+00  0.00000000E+00
  0.00000000E+00  0.00000000E+00  0.00000000E+00
  0.00000000E+00  0.00000000E+00  0.00000000E+00
  0.00000000E+00  0.00000000E+00  0.00000000E+00
  0.00000000E+00  0.00000000E+00  0.00000000E+00
  0.00000000E+00  0.00000000E+00  0.00000000E+00
  0.00000000E+00  0.00000000E+00  0.00000000E+00
  0.00000000E+00  0.00000000E+00  0.00000000E+00
  0.00000000E+00  0.00000000E+00  0.00000000E+00
  0.00000000E+00  0.00000000E+00  0.00000000E+00
  0.00000000E+00  0.00000000E+00  0.00000000E+00
  0.00000000E+00  0.00000000E+00  0.00000000E+00
  0.00000000E+00  0.00000000E+00  0.00000000E+00
  0.00000000E+00  0.00000000E+00  0.00000000E+00
  0.00000000E+00  0.00000000E+00  0.00000000E+00
  0.00000000E+00  0.00000000E+00  0.00000000E+00
  0.00000000E+00  0.00000000E+00  0.00000000E+00
