 C  N Ti                                
   1.00000000000000     
    12.4564545130853048    0.0000000000000000    0.0000000000000000
    -0.0000000000000004   12.8189770080556382    0.0000000000000000
     0.0000000000000003    0.0000000000000000   19.8713392819153718
   C    N    Ti
    56     2     1
Direct
  0.0521788036337743  0.0474524728088277  0.1596682102966726
  0.1524481936494748  0.1023952386978517  0.1596379469526927
  0.1519498206257948  0.2135363435340543  0.1594778275948189
  0.0522468232761601  0.2689583046748075  0.1595957812118728
  0.2529164839351770  0.0475870119067874  0.1594696231546685
  0.3530719482466461  0.1030905828267409  0.1585700845757405
  0.3524152387671500  0.2147960823815093  0.1574381137263163
  0.2515705329017672  0.2689596461969556  0.1585480092206744
  0.4536730634831422  0.0480899130427194  0.1585870326243041
  0.5532715275283466  0.1054331111541690  0.1584749704631617
  0.5534912825947853  0.2182230810682926  0.1579694538510158
  0.4519546609849575  0.2728642690737850  0.1563702585466046
  0.6521315121202567  0.0480848974841627  0.1587933876872909
  0.7518278706082662  0.1036583005792827  0.1585290156686493
  0.7524969839330695  0.2158265646222743  0.1582120667560651
  0.6539652937005284  0.2743475844543410  0.1585447830798310
  0.8517777590118525  0.0477270823012205  0.1590318464044744
  0.9520807901099816  0.1024887095641726  0.1593554118494689
  0.9523941684410294  0.2138626513108380  0.1592869829994706
  0.8531971973928063  0.2695106457435847  0.1587572501356989
  0.0517378270218029  0.3803863224392637  0.1595475349396348
  0.1502267074096580  0.4360473843633348  0.1596729678576935
  0.1502820853379326  0.5476994805454192  0.1596890709524048
  0.0517716619401721  0.6033724426226960  0.1595799718026665
  0.2490434071122599  0.3801144135960612  0.1587485786864997
  0.3473807591625237  0.4354843870625833  0.1565541860004603
  0.3474423381784208  0.5482174493004218  0.1565577016644956
  0.2491175838203603  0.6036077844391224  0.1587633693768009
  0.7550540900071481  0.4356367038536977  0.1592823340788753
  0.7550749043606164  0.5481085731668945  0.1592948494910965
  0.8539853329690226  0.3809358412723308  0.1588435028199218
  0.9529537498026512  0.4363446105510410  0.1591704200266136
  0.9529769152374093  0.5474344209042091  0.1591855201180805
  0.8540145112696702  0.6028127544739701  0.1588640584492295
  0.0522782023726469  0.7148086335496121  0.1596205207522428
  0.1519903935176743  0.7702042637584106  0.1594899351725529
  0.0521964790638305  0.9363267005753306  0.1597023573600642
  0.2516328124169167  0.7147765258390931  0.1585525334203665
  0.3524449802908361  0.7689534932438733  0.1574408590579162
  0.3530884228734646  0.8806264033477685  0.1585882211236176
  0.2529293824440728  0.9361267352444743  0.1594917601233061
  0.4520015879249586  0.7108958745143095  0.1564047114987452
  0.5535246090727356  0.7655529221068192  0.1580569853807043
  0.5532902522340679  0.8783560316513433  0.1585169285607636
  0.4536946325694766  0.9356462750204257  0.1586042114661181
  0.6540050778324025  0.7094234859806672  0.1586185936935168
  0.7525268730376899  0.7679179709952958  0.1582710805354656
  0.7518652953129084  0.8800895563559749  0.1585878111006034
  0.6521685821638087  0.9356627196603003  0.1588302859651460
  0.8532181673354936  0.7142420459313469  0.1588039407607967
  0.9524166550946782  0.7698917278502798  0.1593315743435027
  0.8518139740004861  0.9360026555238128  0.1590590401168583
  0.1524560187359323  0.8813528335739204  0.1596727273629599
  0.9521320419153497  0.8812539018829177  0.1593926529993210
  0.4472250889484912  0.3831786009171166  0.1556349156042024
  0.4472662485586351  0.6005557773586164  0.1556404500790357
  0.6572746201593086  0.3835142511786397  0.1609206650953583
  0.6572908022447017  0.6002664122019954  0.1609672902631275
  0.5473270612942942  0.4918591358371483  0.1951078845716612
 
  0.00000000E+00  0.00000000E+00  0.00000000E+00
  0.00000000E+00  0.00000000E+00  0.00000000E+00
  0.00000000E+00  0.00000000E+00  0.00000000E+00
  0.00000000E+00  0.00000000E+00  0.00000000E+00
  0.00000000E+00  0.00000000E+00  0.00000000E+00
  0.00000000E+00  0.00000000E+00  0.00000000E+00
  0.00000000E+00  0.00000000E+00  0.00000000E+00
  0.00000000E+00  0.00000000E+00  0.00000000E+00
  0.00000000E+00  0.00000000E+00  0.00000000E+00
  0.00000000E+00  0.00000000E+00  0.00000000E+00
  0.00000000E+00  0.00000000E+00  0.00000000E+00
  0.00000000E+00  0.00000000E+00  0.00000000E+00
  0.00000000E+00  0.00000000E+00  0.00000000E+00
  0.00000000E+00  0.00000000E+00  0.00000000E+00
  0.00000000E+00  0.00000000E+00  0.00000000E+00
  0.00000000E+00  0.00000000E+00  0.00000000E+00
  0.00000000E+00  0.00000000E+00  0.00000000E+00
  0.00000000E+00  0.00000000E+00  0.00000000E+00
  0.00000000E+00  0.00000000E+00  0.00000000E+00
  0.00000000E+00  0.00000000E+00  0.00000000E+00
  0.00000000E+00  0.00000000E+00  0.00000000E+00
  0.00000000E+00  0.00000000E+00  0.00000000E+00
  0.00000000E+00  0.00000000E+00  0.00000000E+00
  0.00000000E+00  0.00000000E+00  0.00000000E+00
  0.00000000E+00  0.00000000E+00  0.00000000E+00
  0.00000000E+00  0.00000000E+00  0.00000000E+00
  0.00000000E+00  0.00000000E+00  0.00000000E+00
  0.00000000E+00  0.00000000E+00  0.00000000E+00
  0.00000000E+00  0.00000000E+00  0.00000000E+00
  0.00000000E+00  0.00000000E+00  0.00000000E+00
  0.00000000E+00  0.00000000E+00  0.00000000E+00
  0.00000000E+00  0.00000000E+00  0.00000000E+00
  0.00000000E+00  0.00000000E+00  0.00000000E+00
  0.00000000E+00  0.00000000E+00  0.00000000E+00
  0.00000000E+00  0.00000000E+00  0.00000000E+00
  0.00000000E+00  0.00000000E+00  0.00000000E+00
  0.00000000E+00  0.00000000E+00  0.00000000E+00
  0.00000000E+00  0.00000000E+00  0.00000000E+00
  0.00000000E+00  0.00000000E+00  0.00000000E+00
  0.00000000E+00  0.00000000E+00  0.00000000E+00
  0.00000000E+00  0.00000000E+00  0.00000000E+00
  0.00000000E+00  0.00000000E+00  0.00000000E+00
  0.00000000E+00  0.00000000E+00  0.00000000E+00
  0.00000000E+00  0.00000000E+00  0.00000000E+00
  0.00000000E+00  0.00000000E+00  0.00000000E+00
  0.00000000E+00  0.00000000E+00  0.00000000E+00
  0.00000000E+00  0.00000000E+00  0.00000000E+00
  0.00000000E+00  0.00000000E+00  0.00000000E+00
  0.00000000E+00  0.00000000E+00  0.00000000E+00
  0.00000000E+00  0.00000000E+00  0.00000000E+00
  0.00000000E+00  0.00000000E+00  0.00000000E+00
  0.00000000E+00  0.00000000E+00  0.00000000E+00
  0.00000000E+00  0.00000000E+00  0.00000000E+00
  0.00000000E+00  0.00000000E+00  0.00000000E+00
  0.00000000E+00  0.00000000E+00  0.00000000E+00
  0.00000000E+00  0.00000000E+00  0.00000000E+00
  0.00000000E+00  0.00000000E+00  0.00000000E+00
  0.00000000E+00  0.00000000E+00  0.00000000E+00
  0.00000000E+00  0.00000000E+00  0.00000000E+00
