 C  N  H Co                             
   1.00000000000000     
    26.3058282260002336    0.0000000000000000    0.0000000000000000
     0.0000000000000000   26.3140447712383008    0.0000000000000000
     0.0000000000000000    0.0000000000000000   25.0000000000000000
   C    N    H    Co
    60     8    32     1
Direct
  0.2525312456476249  0.1976319435133991  0.2005748562383078
  0.2040424908297621  0.1717890346711204  0.1993341499542006
  0.1674023440778606  0.2084302836457675  0.1993432599481495
  0.1932679552725315  0.2568940121997094  0.2005878303960038
  0.3460877875385052  0.1976310079399181  0.1994322804400953
  0.3945911452845342  0.1718069871681995  0.2006347010303413
  0.4053472212606543  0.2569312022342126  0.1994523995248781
  0.4312207614668712  0.2084685908391452  0.2006451542919727
  0.2525201981209715  0.4097857836003679  0.1994127886971037
  0.1932838075656500  0.3504413524506333  0.1994391757319961
  0.2039981321488376  0.4355562436895102  0.2006052612971504
  0.1673871996009431  0.3988793870243023  0.2006262095669624
  0.4053170620666579  0.3504852803766344  0.2005898585830912
  0.4312073678052558  0.3989319710040429  0.1993682935047973
  0.3460749420759008  0.4098108832526632  0.2006217834815456
  0.3945939795389519  0.4356027627860158  0.1993868923119049
  0.2992950201541972  0.4353263613195552  0.2000345163662522
  0.1677934584382251  0.3036616804055163  0.2000329396706771
  0.2993034842280855  0.1721346634066905  0.2000010315565552
  0.2992552122838747  0.1152827913854112  0.1999748871823415
  0.3194445658146244  0.0876894137331187  0.1563492694528979
  0.2789721328886781  0.0876547299245934  0.2435343816006841
  0.3197599863789447  0.0346701872821099  0.1559795820976020
  0.2787430183706081  0.0346341547743160  0.2438992035946281
  0.2993305369680098  0.0075961240514795  0.1999672771509542
  0.4308230493646011  0.3037167015665612  0.2000212029681614
  0.2993313225170631  0.4921945967729742  0.2000257129249131
  0.4877289793099444  0.3037500064218348  0.2000094746055062
  0.1109143595065327  0.3036268484009209  0.2000112523358512
  0.2791558183918432  0.5198647172447101  0.1564679476453695
  0.5153109872106351  0.2835877996906797  0.1563269506676573
  0.0833402889154419  0.3238065620756390  0.1563641635337275
  0.3196080638295054  0.5198812170857134  0.2435209847068223
  0.5153261671486343  0.3239794834681790  0.2436510317050114
  0.0832636633846121  0.2833985920632996  0.2435849479604495
  0.2789267285501181  0.5728413730487618  0.1560580699705622
  0.5683746300805852  0.2833158191436493  0.1559568754218095
  0.0302973139013476  0.3241513176042415  0.1559824813623864
  0.3198709403545228  0.5728633605796969  0.2438980627695579
  0.5683909985014707  0.3242301567680806  0.2440180689606707
  0.0302163691290159  0.2832299281992836  0.2439380023019377
  0.2993735858376360  0.5999414002520913  0.1999802110778586
  0.5953927922833951  0.3037310961260929  0.2000029718004860
  0.0032057272861751  0.3037714129321168  0.1999736306156194
  0.6930099657145148  0.3036014452876580  0.2000011246205562
  0.9056227929156798  0.3037849673698658  0.2000196386256351
  0.2993135528420409  0.6974677606588355  0.2000210055838092
  0.2994667293061127  0.9100096091813206  0.2000411047517754
  0.7446896264715753  0.3036047617843535  0.1999602082462109
  0.7734134450203732  0.2561275243982610  0.1998030278908900
  0.7733169167570579  0.3511393529123143  0.2000887957361251
  0.8253151666940209  0.2561861480443795  0.2002575605609620
  0.8252174735834903  0.3512060191851640  0.1996694391087763
  0.8539461127647845  0.3037265466920891  0.1999945196775711
  0.2993362257161733  0.7491023884284540  0.1999970171915111
  0.3469051267509956  0.7777660069935756  0.2001615306791266
  0.2518200112428851  0.7778533056015861  0.1997902211404947
  0.3469579007938598  0.8296233083483784  0.1997315708096016
  0.2518661214042557  0.8297127117842765  0.2002221226293956
  0.2994403052665928  0.8583842666100365  0.2000036813596409
  0.2459234526355321  0.2502754701501720  0.2008979377153240
  0.2459423215757184  0.3571209699433394  0.1991171113779369
  0.3526854909476821  0.2502861216272010  0.1991409084993878
  0.3526582392744996  0.3571514746048714  0.2009132190389544
  0.6474539661343247  0.3036779994233812  0.2000107889118315
  0.9511819268090598  0.3038408683690034  0.1999487995304703
  0.2993536264620832  0.6519057208197475  0.1999266368560329
  0.2994331266612631  0.9555767001960559  0.1999903079863059
  0.1986265109606694  0.1309155577690228  0.1981065590004710
  0.1265130892536933  0.2030194822181580  0.1981244411612170
  0.4000244866794004  0.1309321825625212  0.2018101701988837
  0.4721191899260580  0.2030979238324984  0.2018200105521080
  0.1985406188102604  0.4764204792725210  0.2018010395480401
  0.1264894037488664  0.4042233355245563  0.2018196636064175
  0.4721060535127091  0.4042862736865830  0.1981441209489901
  0.4000692707917596  0.4764655963450854  0.1981455708964605
  0.3344315501403488  0.1084253712330010  0.1219314112012494
  0.2637907584190394  0.1083545973065960  0.2778828914388302
  0.3349793771891993  0.0136051560330743  0.1219181142655801
  0.2634528824471442  0.0135382919701154  0.2779053689622918
  0.2641477600181057  0.4992138580865322  0.1220597527757897
  0.4945646716764744  0.2685688908867079  0.1219065023943591
  0.1041106075697652  0.3387854076331100  0.1219616576382574
  0.3347470557484193  0.4992448320995922  0.2778807217943882
  0.4945934977193240  0.3391319496346289  0.2780159267440840
  0.1039520500918284  0.2681880697559509  0.2779308393752523
  0.2637593828564193  0.5938870878335500  0.1219876608142569
  0.5895238415549090  0.2681452001085052  0.1218995066712829
  0.0092180120621440  0.3393885751998531  0.1219372570451281
  0.3351271778298995  0.5939166312033518  0.2779159938300032
  0.5895468135479046  0.3394948032038704  0.2780265034922519
  0.0090644377390874  0.2679883447476289  0.2779312095465878
  0.7527024191309879  0.2201284974459953  0.1997406685740562
  0.7525185407574584  0.3870859322815056  0.2001269950781616
  0.8460997245308161  0.2202365042781943  0.2003153275932985
  0.8459182731998576  0.3872031217079876  0.1995921549446515
  0.3828536264073302  0.7569680430850444  0.2001869875961592
  0.2158311131356546  0.7571279117420384  0.1996870755994965
  0.3829382123933034  0.8503796348907902  0.1996047775052490
  0.2159299317923394  0.8505472033911289  0.2002686608087293
  0.2992982065640047  0.3037095838296649  0.2000207280644073
 
  0.00000000E+00  0.00000000E+00  0.00000000E+00
  0.00000000E+00  0.00000000E+00  0.00000000E+00
  0.00000000E+00  0.00000000E+00  0.00000000E+00
  0.00000000E+00  0.00000000E+00  0.00000000E+00
  0.00000000E+00  0.00000000E+00  0.00000000E+00
  0.00000000E+00  0.00000000E+00  0.00000000E+00
  0.00000000E+00  0.00000000E+00  0.00000000E+00
  0.00000000E+00  0.00000000E+00  0.00000000E+00
  0.00000000E+00  0.00000000E+00  0.00000000E+00
  0.00000000E+00  0.00000000E+00  0.00000000E+00
  0.00000000E+00  0.00000000E+00  0.00000000E+00
  0.00000000E+00  0.00000000E+00  0.00000000E+00
  0.00000000E+00  0.00000000E+00  0.00000000E+00
  0.00000000E+00  0.00000000E+00  0.00000000E+00
  0.00000000E+00  0.00000000E+00  0.00000000E+00
  0.00000000E+00  0.00000000E+00  0.00000000E+00
  0.00000000E+00  0.00000000E+00  0.00000000E+00
  0.00000000E+00  0.00000000E+00  0.00000000E+00
  0.00000000E+00  0.00000000E+00  0.00000000E+00
  0.00000000E+00  0.00000000E+00  0.00000000E+00
  0.00000000E+00  0.00000000E+00  0.00000000E+00
  0.00000000E+00  0.00000000E+00  0.00000000E+00
  0.00000000E+00  0.00000000E+00  0.00000000E+00
  0.00000000E+00  0.00000000E+00  0.00000000E+00
  0.00000000E+00  0.00000000E+00  0.00000000E+00
  0.00000000E+00  0.00000000E+00  0.00000000E+00
  0.00000000E+00  0.00000000E+00  0.00000000E+00
  0.00000000E+00  0.00000000E+00  0.00000000E+00
  0.00000000E+00  0.00000000E+00  0.00000000E+00
  0.00000000E+00  0.00000000E+00  0.00000000E+00
  0.00000000E+00  0.00000000E+00  0.00000000E+00
  0.00000000E+00  0.00000000E+00  0.00000000E+00
  0.00000000E+00  0.00000000E+00  0.00000000E+00
  0.00000000E+00  0.00000000E+00  0.00000000E+00
  0.00000000E+00  0.00000000E+00  0.00000000E+00
  0.00000000E+00  0.00000000E+00  0.00000000E+00
  0.00000000E+00  0.00000000E+00  0.00000000E+00
  0.00000000E+00  0.00000000E+00  0.00000000E+00
  0.00000000E+00  0.00000000E+00  0.00000000E+00
  0.00000000E+00  0.00000000E+00  0.00000000E+00
  0.00000000E+00  0.00000000E+00  0.00000000E+00
  0.00000000E+00  0.00000000E+00  0.00000000E+00
  0.00000000E+00  0.00000000E+00  0.00000000E+00
  0.00000000E+00  0.00000000E+00  0.00000000E+00
  0.00000000E+00  0.00000000E+00  0.00000000E+00
  0.00000000E+00  0.00000000E+00  0.00000000E+00
  0.00000000E+00  0.00000000E+00  0.00000000E+00
  0.00000000E+00  0.00000000E+00  0.00000000E+00
  0.00000000E+00  0.00000000E+00  0.00000000E+00
  0.00000000E+00  0.00000000E+00  0.00000000E+00
  0.00000000E+00  0.00000000E+00  0.00000000E+00
  0.00000000E+00  0.00000000E+00  0.00000000E+00
  0.00000000E+00  0.00000000E+00  0.00000000E+00
  0.00000000E+00  0.00000000E+00  0.00000000E+00
  0.00000000E+00  0.00000000E+00  0.00000000E+00
  0.00000000E+00  0.00000000E+00  0.00000000E+00
  0.00000000E+00  0.00000000E+00  0.00000000E+00
  0.00000000E+00  0.00000000E+00  0.00000000E+00
  0.00000000E+00  0.00000000E+00  0.00000000E+00
  0.00000000E+00  0.00000000E+00  0.00000000E+00
  0.00000000E+00  0.00000000E+00  0.00000000E+00
  0.00000000E+00  0.00000000E+00  0.00000000E+00
  0.00000000E+00  0.00000000E+00  0.00000000E+00
  0.00000000E+00  0.00000000E+00  0.00000000E+00
  0.00000000E+00  0.00000000E+00  0.00000000E+00
  0.00000000E+00  0.00000000E+00  0.00000000E+00
  0.00000000E+00  0.00000000E+00  0.00000000E+00
  0.00000000E+00  0.00000000E+00  0.00000000E+00
  0.00000000E+00  0.00000000E+00  0.00000000E+00
  0.00000000E+00  0.00000000E+00  0.00000000E+00
  0.00000000E+00  0.00000000E+00  0.00000000E+00
  0.00000000E+00  0.00000000E+00  0.00000000E+00
  0.00000000E+00  0.00000000E+00  0.00000000E+00
  0.00000000E+00  0.00000000E+00  0.00000000E+00
  0.00000000E+00  0.00000000E+00  0.00000000E+00
  0.00000000E+00  0.00000000E+00  0.00000000E+00
  0.00000000E+00  0.00000000E+00  0.00000000E+00
  0.00000000E+00  0.00000000E+00  0.00000000E+00
  0.00000000E+00  0.00000000E+00  0.00000000E+00
  0.00000000E+00  0.00000000E+00  0.00000000E+00
  0.00000000E+00  0.00000000E+00  0.00000000E+00
  0.00000000E+00  0.00000000E+00  0.00000000E+00
  0.00000000E+00  0.00000000E+00  0.00000000E+00
  0.00000000E+00  0.00000000E+00  0.00000000E+00
  0.00000000E+00  0.00000000E+00  0.00000000E+00
  0.00000000E+00  0.00000000E+00  0.00000000E+00
  0.00000000E+00  0.00000000E+00  0.00000000E+00
  0.00000000E+00  0.00000000E+00  0.00000000E+00
  0.00000000E+00  0.00000000E+00  0.00000000E+00
  0.00000000E+00  0.00000000E+00  0.00000000E+00
  0.00000000E+00  0.00000000E+00  0.00000000E+00
  0.00000000E+00  0.00000000E+00  0.00000000E+00
  0.00000000E+00  0.00000000E+00  0.00000000E+00
  0.00000000E+00  0.00000000E+00  0.00000000E+00
  0.00000000E+00  0.00000000E+00  0.00000000E+00
  0.00000000E+00  0.00000000E+00  0.00000000E+00
  0.00000000E+00  0.00000000E+00  0.00000000E+00
  0.00000000E+00  0.00000000E+00  0.00000000E+00
  0.00000000E+00  0.00000000E+00  0.00000000E+00
  0.00000000E+00  0.00000000E+00  0.00000000E+00
  0.00000000E+00  0.00000000E+00  0.00000000E+00
