 C  N  H Co                             
   1.00000000000000     
    11.0700000000000003  -19.1738024397000011    0.0000000000000000
    11.0700000000000003   19.1738024397000011    0.0000000000000000
     0.0000000000000000    0.0000000000000000   16.0000000000000000
   C    N    H    Co
   194     8    16     1
Direct
  0.0000025439448439  0.0000071778592171  0.1125857270323572
  0.0370674247872486  0.0740958620594500  0.1126440057092346
  0.0000219408763175  0.1111254500664289  0.1126076768771529
  0.0370811463111066  0.1852100055083818  0.1126539547150969
  0.0000329010459328  0.2222424566323381  0.1126070393982411
  0.0370844801830944  0.2963211977646595  0.1125702856897442
  0.0000278202639338  0.3333460423242362  0.1125745091102872
  0.0370875093876093  0.4074296077220158  0.1124570313712848
  0.0000131182913511  0.4444412814723153  0.1126028101454076
  0.0370600911345595  0.5185175081275001  0.1125777281607952
  0.9999925735155022  0.5555424617128533  0.1126705824572217
  0.0370300587489484  0.6296151019309696  0.1126465381280838
  0.9999711521338981  0.6666434935771750  0.1126237268816217
  0.0370182319861377  0.7407272213202426  0.1125718458488636
  0.9999723416020901  0.7777608588943619  0.1125520729137627
  0.0370268489258636  0.8518478828421882  0.1125340291563667
  0.9999862479536523  0.8888872570110539  0.1125489627648904
  0.0370441202963072  0.9629715484764425  0.1125853916889594
  0.1111330988272385  0.0000380957380222  0.1126483254814620
  0.1481923950992059  0.0741230850794140  0.1127513548656280
  0.1111547545750374  0.1111567993023430  0.1127501742983231
  0.1482049507224900  0.1852273518948995  0.1128182156639021
  0.1111658511384319  0.2222600712797831  0.1127490022228700
  0.1482136527431243  0.2963388028944504  0.1126701726062753
  0.1111761429436374  0.3333754290452761  0.1124703407384341
  0.1482172204715577  0.4074443514803155  0.1121000005703409
  0.1111744837926080  0.4444645426515081  0.1120699837464936
  0.1482105993137835  0.5185178184724433  0.1118632115158237
  0.1111486020773348  0.5555293550780601  0.1123081884012632
  0.1481725746800317  0.6296078223807343  0.1124493120473112
  0.1111190655137168  0.6666433816280162  0.1126085943344611
  0.1481505416393872  0.7407277369505071  0.1125902339625346
  0.1111043905978017  0.7777689153574516  0.1125561379790574
  0.1481449496058385  0.8518506468000751  0.1125406905950781
  0.1111091595175114  0.8888992606948719  0.1125428178146060
  0.1481601683772401  0.9629892700790251  0.1126231845034706
  0.2222428072126194  0.0000512238678456  0.1126671232418857
  0.2592773601200482  0.0741305817869577  0.1127663394920941
  0.2222576315054453  0.1111768825161522  0.1128161297750670
  0.2592934932483094  0.1852386979754537  0.1129048501237921
  0.2222717100337823  0.2222729230314062  0.1128965902160561
  0.2592919356644157  0.2963299117248609  0.1129140631661151
  0.2222785755315102  0.3333769866596088  0.1127082089399209
  0.2592851439362362  0.4074301093506532  0.1124725904283577
  0.2222703097832995  0.4444670033786749  0.1120210224139572
  0.2592874552388016  0.5185172694147834  0.1118178349059542
  0.2222631416452412  0.5555301808690122  0.1116394271116724
  0.2592824743947793  0.6295780731595771  0.1118680299309377
  0.2222548236027745  0.6666219201480650  0.1122736506557293
  0.2592671261255356  0.7407036846299442  0.1125089287850769
  0.2222283217660884  0.7777571744467705  0.1125791657593519
  0.2592612603134959  0.8518461382718862  0.1125733705571762
  0.2222275816159353  0.8888970766215699  0.1125597161803928
  0.2592659567849308  0.9629876424975313  0.1126114845838574
  0.3333397677997899  0.0000290189858572  0.1126220635345954
  0.3703683480278532  0.0741187445864777  0.1127040978441182
  0.3333466398604714  0.1111752202114237  0.1127756358915981
  0.3703786120963563  0.1852444254549509  0.1128181190577325
  0.3333466120165877  0.2222718916458508  0.1129195514628405
  0.3703816431872745  0.2963237475296572  0.1130191430093471
  0.3333477163979380  0.3333569136843850  0.1130626283762070
  0.3703669593837341  0.4074141362475422  0.1131411587177184
  0.3333435225314282  0.4444508202449502  0.1127965013049282
  0.3703724304091326  0.5185149364816731  0.1127008950755243
  0.3333335834632773  0.5555322881249599  0.1121994622191474
  0.3703736787069228  0.6295809958626446  0.1122800497034180
  0.3333337410810460  0.6665996585235628  0.1121503798818904
  0.3703659256121458  0.7406763966465634  0.1124946488978075
  0.3333452025702129  0.7777400874343852  0.1125416440285613
  0.3703717782062026  0.8518282712787614  0.1125823133505811
  0.3333398645114294  0.8888851022702842  0.1125627620040895
  0.3703676564664738  0.9629689748907457  0.1125704870992190
  0.4444442003695978  0.0000072158957990  0.1125621617441969
  0.4814717499060303  0.0740946993187006  0.1126060651550066
  0.4444458846244304  0.1111573755388712  0.1126754490622885
  0.4814694596743755  0.1852375462655414  0.1126223527377787
  0.4444387125094649  0.2222801276453617  0.1126716267985550
  0.4814849403707958  0.2963401562971661  0.1125668127274636
  0.4444449615185402  0.3333532561302516  0.1128762515844768
  0.4814797237393631  0.4074046531771789  0.1130541748846176
  0.4444358167890408  0.4444359117690362  0.1133522476103397
  0.4814734840663660  0.5185122399947356  0.1133329001426223
  0.4444320183771902  0.5555389016726098  0.1130353125607659
  0.4814710254773063  0.6295954164325664  0.1129076480610611
  0.4444287793347676  0.6666043363542572  0.1126582449563748
  0.4814745917715255  0.7406713642235955  0.1127452680586409
  0.4444454251079649  0.7777178708765399  0.1126698845306304
  0.4814696988653531  0.8518011369821933  0.1126726010754562
  0.4444438091257524  0.8888625074829744  0.1125880129636971
  0.4814724454841715  0.9629510779441831  0.1125570620339123
  0.5555481470209629  0.9999885531876797  0.1125632787442648
  0.5925759758337351  0.0740720297005700  0.1125723778875304
  0.5555437460803615  0.1111289139355678  0.1125848478532322
  0.5925699113980465  0.1852166519037861  0.1125025291670461
  0.5555489278209955  0.2222803288957370  0.1123947233917874
  0.5925811736506906  0.2963499870740973  0.1119910882764225
  0.5555367470030655  0.3333629795319903  0.1121787690460547
  0.5925747066352460  0.4074089595508037  0.1122469175095392
  0.5555382362115543  0.4444308259850246  0.1127676095943964
  0.5925682138365979  0.5184969746857633  0.1129365116808697
  0.5555425597033578  0.5555328672363593  0.1131908597118890
  0.5925670117769302  0.6295946304877175  0.1130921679599096
  0.5555314339580613  0.6666235421018684  0.1130193502727148
  0.5925705316826693  0.7406782254274954  0.1129084879330908
  0.5555390959875286  0.7777055406053736  0.1128380479105493
  0.5925703727884614  0.8517810861871621  0.1127811964529771
  0.5555476825435056  0.8888392490546986  0.1126897739928408
  0.5925773585355552  0.9629296467184268  0.1126106702277332
  0.6666512618424072  0.9999701691555424  0.1125990213371231
  0.7036897058064566  0.0740611315591117  0.1125644564241733
  0.6666546811519177  0.1111109927821647  0.1125747201119967
  0.7036860762980154  0.1851989569797067  0.1125700142605259
  0.6666479944350057  0.2222547678192247  0.1124433828574963
  0.7036576267378594  0.2963326869056596  0.1121594987662117
  0.6666290981633358  0.3333709735794035  0.1117448073467539
  0.7036527429355808  0.4074148280304819  0.1117106953285035
  0.6666261299935103  0.4444278913413436  0.1120119139136513
  0.7036450765574342  0.5184816744754501  0.1123450051949111
  0.6666255089410033  0.5555193675911556  0.1127234916223396
  0.7036390183141183  0.6295773912789353  0.1128630017681627
  0.6666214907887521  0.6666217623774570  0.1129619026184779
  0.7036475035547496  0.7406823577150395  0.1128833280846956
  0.6666230492069916  0.7777111201728942  0.1128651449337255
  0.7036608579705952  0.8517753740132151  0.1127868732836647
  0.6666420250551377  0.8888249403846212  0.1127534509916184
  0.7036766490088369  0.9629086159318493  0.1126574118386180
  0.7777598046973091  0.9999687176360178  0.1126068672659936
  0.8148092287510397  0.0740584266787218  0.1125442913554651
  0.7777717973429523  0.1111056774639747  0.1125430380649557
  0.8148107913170518  0.1851866626967575  0.1125714083883467
  0.7777638524960891  0.2222278332461529  0.1125862848325252
  0.8147932218570580  0.2963116431724584  0.1126063994719710
  0.7777375581776995  0.3333475960052004  0.1124064224698054
  0.8147634517322022  0.4074215761279234  0.1123265896597309
  0.7777012974277973  0.4444311637847754  0.1119748157296078
  0.8147406100521577  0.5184833213995486  0.1122633942857843
  0.7776982431029043  0.5555059781699342  0.1123960601161899
  0.8147423568218771  0.6295807615788640  0.1126430032279303
  0.7777040155804734  0.6666153759351320  0.1127815268300151
  0.8147518241824820  0.7406947432820196  0.1127683781162445
  0.7777109972826004  0.7777251710945009  0.1127980214842282
  0.8147634677730540  0.8517961393791914  0.1127286918040689
  0.7777267018242690  0.8888306482467666  0.1127230361636350
  0.8147865782037247  0.9629186894525819  0.1126365732640793
  0.8888751980419048  0.9999844727821577  0.1125772889490240
  0.9259318635370704  0.0740685081706003  0.1125556294010022
  0.8888913361264662  0.1111079737776049  0.1125380648950708
  0.9259441844603490  0.1851945347722674  0.1125682309436301
  0.8888970801025730  0.2222273936734415  0.1125838719650542
  0.9259414180650051  0.2963092770358731  0.1126326283467946
  0.8888819543862909  0.3333383429443013  0.1126516389715195
  0.9259188370501499  0.4074099253478742  0.1126739872584763
  0.8888497570641304  0.4444337655742833  0.1125973141835285
  0.9258998265037780  0.5185109332077514  0.1126381750298423
  0.8888256421425544  0.5555215486991005  0.1125423473389103
  0.9258854630648572  0.6296054882512142  0.1126216652851304
  0.8888305901696670  0.6666322533262284  0.1126283672003867
  0.9258833099816985  0.7407115481051917  0.1126141895513080
  0.8888352592230185  0.7777437914050634  0.1126501984534160
  0.9258968295013150  0.8518298410949984  0.1126011565684653
  0.8888512057638844  0.8888588626781255  0.1126291473053051
  0.9259163485370944  0.9629479652116358  0.1125844237070264
  0.2667498782767105  0.1329234801901911  0.3763203461772321
  0.3363540175214572  0.1865686088797394  0.3689770040659277
  0.3490417645020219  0.2551565791038655  0.3634223564500394
  0.2937507499738057  0.2696817559990202  0.3643584060745317
  0.2241329721976589  0.2161727201877362  0.3711370152876232
  0.2113279011467815  0.1475423379949477  0.3774887301656163
  0.3257066054323404  0.3453718530307511  0.3589512009537432
  0.4133462891834953  0.3223570076468172  0.3579451306189442
  0.3180506157295691  0.4457906526660237  0.3520293771964977
  0.3951242686066765  0.5603184302995915  0.3537249548843773
  0.2776333784014243  0.4812729296286937  0.3459966425173688
  0.3262348908510710  0.5534846935859252  0.3475249082631848
  0.3045347606200590  0.6030210266418574  0.3426515319776940
  0.2327451426241622  0.5781832012227777  0.3355397090200340
  0.1840330030691082  0.5057526703782096  0.3334640581148285
  0.2058491108198826  0.4563075594272363  0.3388458047170919
  0.5337692264418902  0.3893780418289296  0.3522504479085459
  0.6108215067774583  0.5038211273540022  0.3575708214099579
  0.6247143375306070  0.3472376386623116  0.3388404976356789
  0.6967090355962675  0.3723483058218129  0.3347241563444213
  0.7454485323070920  0.4446775356401833  0.3392760753538626
  0.7234155012315263  0.4937800600634485  0.3476705303103835
  0.6514185377602281  0.4685537923728166  0.3512277807662584
  0.6028118741916464  0.3964173820946246  0.3471830600673056
  0.6030353796884549  0.6041583530565325  0.3646856662899757
  0.5154731625727224  0.6272342979507883  0.3615078561458854
  0.6350419723562737  0.6799197493225581  0.3682952238184094
  0.7047700113737501  0.7335649656267752  0.3725008630164105
  0.7177663282338755  0.8024170816142128  0.3740524094466052
  0.6623983625701485  0.8170732349300344  0.3711563635021025
  0.5926572859237842  0.7632496817513876  0.3669680100080907
  0.5798107473795346  0.6944846084152830  0.3658029868206730
  0.3981390780342490  0.3763341164016501  0.3570267339047707
  0.2880024097450952  0.3767625914258491  0.3550326819568211
  0.3890865472624777  0.4945450601370505  0.3553360767627939
  0.4757274051975549  0.3276223411803552  0.3537438060841984
  0.5397482556856871  0.4550586551647510  0.3569405899253210
  0.6407833127873604  0.5727633094123364  0.3624463206276865
  0.5306385823789390  0.5732215790202977  0.3613837328485672
  0.4531274967134809  0.6220212188269931  0.3571714814784503
  0.2548973941094149  0.0788577035456972  0.3818886596348592
  0.3796071766645815  0.1760477576561853  0.3683618427487627
  0.1819399036989983  0.2282546017714089  0.3722590088729078
  0.1577667221300567  0.1045122624593794  0.3840626890260428
  0.3427295577259590  0.6587207413352372  0.3441177811232255
  0.2139005498670134  0.6152471587306080  0.3310451565601985
  0.1285339643201005  0.4882681402799802  0.3271199639009507
  0.1688895591252647  0.4003008171517901  0.3370855243856893
  0.5865398128933752  0.2916198528762649  0.3351152993038490
  0.7157068400072697  0.3356027858908113  0.3273601597604403
  0.8011584362845547  0.4623898217099399  0.3357604042217632
  0.7603654952302250  0.5497349421954755  0.3510495529520600
  0.7469264490783291  0.7214559970719810  0.3746302875400098
  0.7714731448119828  0.8456385801406331  0.3776921888461995
  0.6744357176533626  0.8713546879581634  0.3724040815657905
  0.5494527220205206  0.7738040027255835  0.3647088721933479
  0.4644025373853128  0.4747896862956612  0.3576187184541389
 
  0.00000000E+00  0.00000000E+00  0.00000000E+00
  0.00000000E+00  0.00000000E+00  0.00000000E+00
  0.00000000E+00  0.00000000E+00  0.00000000E+00
  0.00000000E+00  0.00000000E+00  0.00000000E+00
  0.00000000E+00  0.00000000E+00  0.00000000E+00
  0.00000000E+00  0.00000000E+00  0.00000000E+00
  0.00000000E+00  0.00000000E+00  0.00000000E+00
  0.00000000E+00  0.00000000E+00  0.00000000E+00
  0.00000000E+00  0.00000000E+00  0.00000000E+00
  0.00000000E+00  0.00000000E+00  0.00000000E+00
  0.00000000E+00  0.00000000E+00  0.00000000E+00
  0.00000000E+00  0.00000000E+00  0.00000000E+00
  0.00000000E+00  0.00000000E+00  0.00000000E+00
  0.00000000E+00  0.00000000E+00  0.00000000E+00
  0.00000000E+00  0.00000000E+00  0.00000000E+00
  0.00000000E+00  0.00000000E+00  0.00000000E+00
  0.00000000E+00  0.00000000E+00  0.00000000E+00
  0.00000000E+00  0.00000000E+00  0.00000000E+00
  0.00000000E+00  0.00000000E+00  0.00000000E+00
  0.00000000E+00  0.00000000E+00  0.00000000E+00
  0.00000000E+00  0.00000000E+00  0.00000000E+00
  0.00000000E+00  0.00000000E+00  0.00000000E+00
  0.00000000E+00  0.00000000E+00  0.00000000E+00
  0.00000000E+00  0.00000000E+00  0.00000000E+00
  0.00000000E+00  0.00000000E+00  0.00000000E+00
  0.00000000E+00  0.00000000E+00  0.00000000E+00
  0.00000000E+00  0.00000000E+00  0.00000000E+00
  0.00000000E+00  0.00000000E+00  0.00000000E+00
  0.00000000E+00  0.00000000E+00  0.00000000E+00
  0.00000000E+00  0.00000000E+00  0.00000000E+00
  0.00000000E+00  0.00000000E+00  0.00000000E+00
  0.00000000E+00  0.00000000E+00  0.00000000E+00
  0.00000000E+00  0.00000000E+00  0.00000000E+00
  0.00000000E+00  0.00000000E+00  0.00000000E+00
  0.00000000E+00  0.00000000E+00  0.00000000E+00
  0.00000000E+00  0.00000000E+00  0.00000000E+00
  0.00000000E+00  0.00000000E+00  0.00000000E+00
  0.00000000E+00  0.00000000E+00  0.00000000E+00
  0.00000000E+00  0.00000000E+00  0.00000000E+00
  0.00000000E+00  0.00000000E+00  0.00000000E+00
  0.00000000E+00  0.00000000E+00  0.00000000E+00
  0.00000000E+00  0.00000000E+00  0.00000000E+00
  0.00000000E+00  0.00000000E+00  0.00000000E+00
  0.00000000E+00  0.00000000E+00  0.00000000E+00
  0.00000000E+00  0.00000000E+00  0.00000000E+00
  0.00000000E+00  0.00000000E+00  0.00000000E+00
  0.00000000E+00  0.00000000E+00  0.00000000E+00
  0.00000000E+00  0.00000000E+00  0.00000000E+00
  0.00000000E+00  0.00000000E+00  0.00000000E+00
  0.00000000E+00  0.00000000E+00  0.00000000E+00
  0.00000000E+00  0.00000000E+00  0.00000000E+00
  0.00000000E+00  0.00000000E+00  0.00000000E+00
  0.00000000E+00  0.00000000E+00  0.00000000E+00
  0.00000000E+00  0.00000000E+00  0.00000000E+00
  0.00000000E+00  0.00000000E+00  0.00000000E+00
  0.00000000E+00  0.00000000E+00  0.00000000E+00
  0.00000000E+00  0.00000000E+00  0.00000000E+00
  0.00000000E+00  0.00000000E+00  0.00000000E+00
  0.00000000E+00  0.00000000E+00  0.00000000E+00
  0.00000000E+00  0.00000000E+00  0.00000000E+00
  0.00000000E+00  0.00000000E+00  0.00000000E+00
  0.00000000E+00  0.00000000E+00  0.00000000E+00
  0.00000000E+00  0.00000000E+00  0.00000000E+00
  0.00000000E+00  0.00000000E+00  0.00000000E+00
  0.00000000E+00  0.00000000E+00  0.00000000E+00
  0.00000000E+00  0.00000000E+00  0.00000000E+00
  0.00000000E+00  0.00000000E+00  0.00000000E+00
  0.00000000E+00  0.00000000E+00  0.00000000E+00
  0.00000000E+00  0.00000000E+00  0.00000000E+00
  0.00000000E+00  0.00000000E+00  0.00000000E+00
  0.00000000E+00  0.00000000E+00  0.00000000E+00
  0.00000000E+00  0.00000000E+00  0.00000000E+00
  0.00000000E+00  0.00000000E+00  0.00000000E+00
  0.00000000E+00  0.00000000E+00  0.00000000E+00
  0.00000000E+00  0.00000000E+00  0.00000000E+00
  0.00000000E+00  0.00000000E+00  0.00000000E+00
  0.00000000E+00  0.00000000E+00  0.00000000E+00
  0.00000000E+00  0.00000000E+00  0.00000000E+00
  0.00000000E+00  0.00000000E+00  0.00000000E+00
  0.00000000E+00  0.00000000E+00  0.00000000E+00
  0.00000000E+00  0.00000000E+00  0.00000000E+00
  0.00000000E+00  0.00000000E+00  0.00000000E+00
  0.00000000E+00  0.00000000E+00  0.00000000E+00
  0.00000000E+00  0.00000000E+00  0.00000000E+00
  0.00000000E+00  0.00000000E+00  0.00000000E+00
  0.00000000E+00  0.00000000E+00  0.00000000E+00
  0.00000000E+00  0.00000000E+00  0.00000000E+00
  0.00000000E+00  0.00000000E+00  0.00000000E+00
  0.00000000E+00  0.00000000E+00  0.00000000E+00
  0.00000000E+00  0.00000000E+00  0.00000000E+00
  0.00000000E+00  0.00000000E+00  0.00000000E+00
  0.00000000E+00  0.00000000E+00  0.00000000E+00
  0.00000000E+00  0.00000000E+00  0.00000000E+00
  0.00000000E+00  0.00000000E+00  0.00000000E+00
  0.00000000E+00  0.00000000E+00  0.00000000E+00
  0.00000000E+00  0.00000000E+00  0.00000000E+00
  0.00000000E+00  0.00000000E+00  0.00000000E+00
  0.00000000E+00  0.00000000E+00  0.00000000E+00
  0.00000000E+00  0.00000000E+00  0.00000000E+00
  0.00000000E+00  0.00000000E+00  0.00000000E+00
  0.00000000E+00  0.00000000E+00  0.00000000E+00
  0.00000000E+00  0.00000000E+00  0.00000000E+00
  0.00000000E+00  0.00000000E+00  0.00000000E+00
  0.00000000E+00  0.00000000E+00  0.00000000E+00
  0.00000000E+00  0.00000000E+00  0.00000000E+00
  0.00000000E+00  0.00000000E+00  0.00000000E+00
  0.00000000E+00  0.00000000E+00  0.00000000E+00
  0.00000000E+00  0.00000000E+00  0.00000000E+00
  0.00000000E+00  0.00000000E+00  0.00000000E+00
  0.00000000E+00  0.00000000E+00  0.00000000E+00
  0.00000000E+00  0.00000000E+00  0.00000000E+00
  0.00000000E+00  0.00000000E+00  0.00000000E+00
  0.00000000E+00  0.00000000E+00  0.00000000E+00
  0.00000000E+00  0.00000000E+00  0.00000000E+00
  0.00000000E+00  0.00000000E+00  0.00000000E+00
  0.00000000E+00  0.00000000E+00  0.00000000E+00
  0.00000000E+00  0.00000000E+00  0.00000000E+00
  0.00000000E+00  0.00000000E+00  0.00000000E+00
  0.00000000E+00  0.00000000E+00  0.00000000E+00
  0.00000000E+00  0.00000000E+00  0.00000000E+00
  0.00000000E+00  0.00000000E+00  0.00000000E+00
  0.00000000E+00  0.00000000E+00  0.00000000E+00
  0.00000000E+00  0.00000000E+00  0.00000000E+00
  0.00000000E+00  0.00000000E+00  0.00000000E+00
  0.00000000E+00  0.00000000E+00  0.00000000E+00
  0.00000000E+00  0.00000000E+00  0.00000000E+00
  0.00000000E+00  0.00000000E+00  0.00000000E+00
  0.00000000E+00  0.00000000E+00  0.00000000E+00
  0.00000000E+00  0.00000000E+00  0.00000000E+00
  0.00000000E+00  0.00000000E+00  0.00000000E+00
  0.00000000E+00  0.00000000E+00  0.00000000E+00
  0.00000000E+00  0.00000000E+00  0.00000000E+00
  0.00000000E+00  0.00000000E+00  0.00000000E+00
  0.00000000E+00  0.00000000E+00  0.00000000E+00
  0.00000000E+00  0.00000000E+00  0.00000000E+00
  0.00000000E+00  0.00000000E+00  0.00000000E+00
  0.00000000E+00  0.00000000E+00  0.00000000E+00
  0.00000000E+00  0.00000000E+00  0.00000000E+00
  0.00000000E+00  0.00000000E+00  0.00000000E+00
  0.00000000E+00  0.00000000E+00  0.00000000E+00
  0.00000000E+00  0.00000000E+00  0.00000000E+00
  0.00000000E+00  0.00000000E+00  0.00000000E+00
  0.00000000E+00  0.00000000E+00  0.00000000E+00
  0.00000000E+00  0.00000000E+00  0.00000000E+00
  0.00000000E+00  0.00000000E+00  0.00000000E+00
  0.00000000E+00  0.00000000E+00  0.00000000E+00
  0.00000000E+00  0.00000000E+00  0.00000000E+00
  0.00000000E+00  0.00000000E+00  0.00000000E+00
  0.00000000E+00  0.00000000E+00  0.00000000E+00
  0.00000000E+00  0.00000000E+00  0.00000000E+00
  0.00000000E+00  0.00000000E+00  0.00000000E+00
  0.00000000E+00  0.00000000E+00  0.00000000E+00
  0.00000000E+00  0.00000000E+00  0.00000000E+00
  0.00000000E+00  0.00000000E+00  0.00000000E+00
  0.00000000E+00  0.00000000E+00  0.00000000E+00
  0.00000000E+00  0.00000000E+00  0.00000000E+00
  0.00000000E+00  0.00000000E+00  0.00000000E+00
  0.00000000E+00  0.00000000E+00  0.00000000E+00
  0.00000000E+00  0.00000000E+00  0.00000000E+00
  0.00000000E+00  0.00000000E+00  0.00000000E+00
  0.00000000E+00  0.00000000E+00  0.00000000E+00
  0.00000000E+00  0.00000000E+00  0.00000000E+00
  0.00000000E+00  0.00000000E+00  0.00000000E+00
  0.00000000E+00  0.00000000E+00  0.00000000E+00
  0.00000000E+00  0.00000000E+00  0.00000000E+00
  0.00000000E+00  0.00000000E+00  0.00000000E+00
  0.00000000E+00  0.00000000E+00  0.00000000E+00
  0.00000000E+00  0.00000000E+00  0.00000000E+00
  0.00000000E+00  0.00000000E+00  0.00000000E+00
  0.00000000E+00  0.00000000E+00  0.00000000E+00
  0.00000000E+00  0.00000000E+00  0.00000000E+00
  0.00000000E+00  0.00000000E+00  0.00000000E+00
  0.00000000E+00  0.00000000E+00  0.00000000E+00
  0.00000000E+00  0.00000000E+00  0.00000000E+00
  0.00000000E+00  0.00000000E+00  0.00000000E+00
  0.00000000E+00  0.00000000E+00  0.00000000E+00
  0.00000000E+00  0.00000000E+00  0.00000000E+00
  0.00000000E+00  0.00000000E+00  0.00000000E+00
  0.00000000E+00  0.00000000E+00  0.00000000E+00
  0.00000000E+00  0.00000000E+00  0.00000000E+00
  0.00000000E+00  0.00000000E+00  0.00000000E+00
  0.00000000E+00  0.00000000E+00  0.00000000E+00
  0.00000000E+00  0.00000000E+00  0.00000000E+00
  0.00000000E+00  0.00000000E+00  0.00000000E+00
  0.00000000E+00  0.00000000E+00  0.00000000E+00
  0.00000000E+00  0.00000000E+00  0.00000000E+00
  0.00000000E+00  0.00000000E+00  0.00000000E+00
  0.00000000E+00  0.00000000E+00  0.00000000E+00
  0.00000000E+00  0.00000000E+00  0.00000000E+00
  0.00000000E+00  0.00000000E+00  0.00000000E+00
  0.00000000E+00  0.00000000E+00  0.00000000E+00
  0.00000000E+00  0.00000000E+00  0.00000000E+00
  0.00000000E+00  0.00000000E+00  0.00000000E+00
  0.00000000E+00  0.00000000E+00  0.00000000E+00
  0.00000000E+00  0.00000000E+00  0.00000000E+00
  0.00000000E+00  0.00000000E+00  0.00000000E+00
  0.00000000E+00  0.00000000E+00  0.00000000E+00
  0.00000000E+00  0.00000000E+00  0.00000000E+00
  0.00000000E+00  0.00000000E+00  0.00000000E+00
  0.00000000E+00  0.00000000E+00  0.00000000E+00
  0.00000000E+00  0.00000000E+00  0.00000000E+00
  0.00000000E+00  0.00000000E+00  0.00000000E+00
  0.00000000E+00  0.00000000E+00  0.00000000E+00
  0.00000000E+00  0.00000000E+00  0.00000000E+00
  0.00000000E+00  0.00000000E+00  0.00000000E+00
  0.00000000E+00  0.00000000E+00  0.00000000E+00
  0.00000000E+00  0.00000000E+00  0.00000000E+00
  0.00000000E+00  0.00000000E+00  0.00000000E+00
  0.00000000E+00  0.00000000E+00  0.00000000E+00
  0.00000000E+00  0.00000000E+00  0.00000000E+00
  0.00000000E+00  0.00000000E+00  0.00000000E+00
  0.00000000E+00  0.00000000E+00  0.00000000E+00
  0.00000000E+00  0.00000000E+00  0.00000000E+00
  0.00000000E+00  0.00000000E+00  0.00000000E+00
  0.00000000E+00  0.00000000E+00  0.00000000E+00
  0.00000000E+00  0.00000000E+00  0.00000000E+00
  0.00000000E+00  0.00000000E+00  0.00000000E+00
  0.00000000E+00  0.00000000E+00  0.00000000E+00
  0.00000000E+00  0.00000000E+00  0.00000000E+00
