 C  N  V                                
   1.00000000000000     
     8.5087045811625188    0.0000000000000001    0.0000000000000000
    -0.0000000000000001    8.5014278529973470    0.0000000000000000
    -0.0000000000000002    0.0000000000000000   19.8713392818999957
   C    N    V 
    22     2     1
Direct
  0.4981393586873856  0.0847025253841322  0.1542619742008302
  0.3500731996811923  0.1642218565450483  0.1542687249896197
  0.6452331579809604  0.1651410546816501  0.1542090968101371
  0.7954857172086488  0.9180429535404430  0.1540238578732172
  0.7954923321892388  0.0818921307676096  0.1540253245823860
  0.9181022401666175  0.2045704051997259  0.1540158346872779
  0.8381582263416425  0.3534759677335048  0.1541816177257276
  0.2032878100991003  0.0831995956780583  0.1540463455534849
  0.0830505158295101  0.2029669517351248  0.1540278768746548
  0.1671579312229596  0.3513918200435021  0.1542341143927421
  0.0895692324092233  0.4999808682382811  0.1542437499003152
  0.1671471186836542  0.6485615741851772  0.1541870153721114
  0.3500619929445686  0.8357260002275885  0.1542259181534593
  0.2032761599499256  0.9167530086534581  0.1540436174519246
  0.0830392007237888  0.7969882731213535  0.1540204336020697
  0.6452225380009006  0.8347945474017635  0.1542160229105268
  0.8381468230945202  0.6464622119619307  0.1541777126251699
  0.9180877768956206  0.7953683123489940  0.1540100254706746
  0.4981306562294227  0.9152413399742735  0.1542524762756681
  0.9202100805171313  0.4999703930635572  0.1541928821104342
  0.6692518042745835  0.3322049148532456  0.1543743854341542
  0.6692338975383034  0.6677381423873826  0.1543960833320551
  0.3276914126437054  0.3271067563985361  0.1544273360170050
  0.3276847508944007  0.6728455980787305  0.1543238264805623
  0.4994156257241038  0.4999657153851002  0.1550267569945857
 
  0.00000000E+00  0.00000000E+00  0.00000000E+00
  0.00000000E+00  0.00000000E+00  0.00000000E+00
  0.00000000E+00  0.00000000E+00  0.00000000E+00
  0.00000000E+00  0.00000000E+00  0.00000000E+00
  0.00000000E+00  0.00000000E+00  0.00000000E+00
  0.00000000E+00  0.00000000E+00  0.00000000E+00
  0.00000000E+00  0.00000000E+00  0.00000000E+00
  0.00000000E+00  0.00000000E+00  0.00000000E+00
  0.00000000E+00  0.00000000E+00  0.00000000E+00
  0.00000000E+00  0.00000000E+00  0.00000000E+00
  0.00000000E+00  0.00000000E+00  0.00000000E+00
  0.00000000E+00  0.00000000E+00  0.00000000E+00
  0.00000000E+00  0.00000000E+00  0.00000000E+00
  0.00000000E+00  0.00000000E+00  0.00000000E+00
  0.00000000E+00  0.00000000E+00  0.00000000E+00
  0.00000000E+00  0.00000000E+00  0.00000000E+00
  0.00000000E+00  0.00000000E+00  0.00000000E+00
  0.00000000E+00  0.00000000E+00  0.00000000E+00
  0.00000000E+00  0.00000000E+00  0.00000000E+00
  0.00000000E+00  0.00000000E+00  0.00000000E+00
  0.00000000E+00  0.00000000E+00  0.00000000E+00
  0.00000000E+00  0.00000000E+00  0.00000000E+00
  0.00000000E+00  0.00000000E+00  0.00000000E+00
  0.00000000E+00  0.00000000E+00  0.00000000E+00
  0.00000000E+00  0.00000000E+00  0.00000000E+00
