 C  N Mn                                
   1.00000000000000     
    12.5351080068855900    0.0000000000000000    0.0000000000000000
    -0.0000000000000004   12.8339347565085671    0.0000000000000000
     0.0000000000000003    0.0000000000000000   19.8713392819153718
   C    N    Mn
    57     1     1
Direct
  0.0520864398666738  0.0476189824719449  0.1594091080628080
  0.1519245870530204  0.1022510448265642  0.1593755847682638
  0.1514412908473227  0.2130398310112700  0.1593061767671852
  0.0520737370899919  0.2684058288033205  0.1592607233356061
  0.2524057551694199  0.0473749714580165  0.1594106970526363
  0.3523067560909601  0.1025218730259975  0.1594276573626181
  0.3514373699661201  0.2143947482100051  0.1593832051854551
  0.2508303556139004  0.2684972904235741  0.1592967691756061
  0.4524807846430424  0.0473144084351715  0.1594775635799296
  0.5522762959762344  0.1052235253564686  0.1595033376830563
  0.5523397924133814  0.2166617723664860  0.1594337077611507
  0.4501549521351823  0.2725359438612033  0.1594063211154495
  0.6522088078072206  0.0476330666761120  0.1594804833182546
  0.7522780302188151  0.1025840589240250  0.1594329797875187
  0.7531869847369814  0.2144106142664409  0.1593694690865423
  0.6546440092936370  0.2721450096685399  0.1593458256958464
  0.8521112231671507  0.0473158550655321  0.1594152242653957
  0.9523261794014162  0.1024238123147875  0.1593808881920157
  0.9528124255162780  0.2134066009450267  0.1593116307016587
  0.8533668771156679  0.2692343837071672  0.1593129373477788
  0.0519820388790876  0.3802617200102952  0.1592188978654709
  0.1495198748898990  0.4360317845513921  0.1591915788910868
  0.1493435280116412  0.5475878517919286  0.1591989428137734
  0.0517870958814380  0.6034640256605562  0.1592376721863466
  0.2477011732655455  0.3794772016195876  0.1592301681382634
  0.3445847621256357  0.4351481734521518  0.1592563979961204
  0.3441569907750072  0.5488960252786992  0.1592285264761983
  0.2472434727303192  0.6042488019300086  0.1592240063299238
  0.7581841168027416  0.4360920833330365  0.1592312380153565
  0.7590615274157037  0.5504913886847862  0.1592471323213037
  0.8560579558823648  0.3805627140251172  0.1592470884572986
  0.9543596260003626  0.4361946701195618  0.1592098746445745
  0.9543482374404787  0.5475175600866707  0.1592124143586249
  0.8564880144203229  0.6045352466070015  0.1592375409355862
  0.0522261730505494  0.7153377382741725  0.1592730500836259
  0.1513741206221651  0.7707839141133941  0.1593192130435359
  0.0520829852292907  0.9365833946257999  0.1594203421361614
  0.2506009629166792  0.7151702892746289  0.1593038264790043
  0.3511656779827704  0.7692927172139409  0.1593872465067316
  0.3521602527893227  0.8808827318144364  0.1594345086172780
  0.2523355218470708  0.9363855799016767  0.1594180349432797
  0.4496545458711120  0.7108624860723342  0.1593755521158955
  0.5529052883844645  0.7650628458891721  0.1594364731678037
  0.5530028605933088  0.8771556822568110  0.1594747195450519
  0.4526803711695798  0.9352474521939276  0.1594725937408214
  0.6560205759306277  0.7100059934392150  0.1593913889955660
  0.7536052704870334  0.7690850827341614  0.1593880527441294
  0.7522363093076999  0.8809120783930200  0.1594363668762436
  0.6522533493129689  0.9355940046357440  0.1594732292723199
  0.8542162738862688  0.7154873450626207  0.1593051999653957
  0.9531994772642414  0.7709457821698654  0.1593223818065022
  0.8520883255470203  0.9362976599476270  0.1594180346529972
  0.1518309599556002  0.8816366003213317  0.1593823795468001
  0.9524923092948738  0.8817431741393642  0.1593869711492188
  0.4436575597511693  0.3828127694343266  0.1593736046530996
  0.4427630946018843  0.6012724644092362  0.1592976089520595
  0.6603053301834705  0.3822207467856966  0.1592536453641696
  0.6637983013101899  0.6027523361064672  0.1593158287738314
  0.5520131240571524  0.4915462579394966  0.1594080366656920
 
  0.00000000E+00  0.00000000E+00  0.00000000E+00
  0.00000000E+00  0.00000000E+00  0.00000000E+00
  0.00000000E+00  0.00000000E+00  0.00000000E+00
  0.00000000E+00  0.00000000E+00  0.00000000E+00
  0.00000000E+00  0.00000000E+00  0.00000000E+00
  0.00000000E+00  0.00000000E+00  0.00000000E+00
  0.00000000E+00  0.00000000E+00  0.00000000E+00
  0.00000000E+00  0.00000000E+00  0.00000000E+00
  0.00000000E+00  0.00000000E+00  0.00000000E+00
  0.00000000E+00  0.00000000E+00  0.00000000E+00
  0.00000000E+00  0.00000000E+00  0.00000000E+00
  0.00000000E+00  0.00000000E+00  0.00000000E+00
  0.00000000E+00  0.00000000E+00  0.00000000E+00
  0.00000000E+00  0.00000000E+00  0.00000000E+00
  0.00000000E+00  0.00000000E+00  0.00000000E+00
  0.00000000E+00  0.00000000E+00  0.00000000E+00
  0.00000000E+00  0.00000000E+00  0.00000000E+00
  0.00000000E+00  0.00000000E+00  0.00000000E+00
  0.00000000E+00  0.00000000E+00  0.00000000E+00
  0.00000000E+00  0.00000000E+00  0.00000000E+00
  0.00000000E+00  0.00000000E+00  0.00000000E+00
  0.00000000E+00  0.00000000E+00  0.00000000E+00
  0.00000000E+00  0.00000000E+00  0.00000000E+00
  0.00000000E+00  0.00000000E+00  0.00000000E+00
  0.00000000E+00  0.00000000E+00  0.00000000E+00
  0.00000000E+00  0.00000000E+00  0.00000000E+00
  0.00000000E+00  0.00000000E+00  0.00000000E+00
  0.00000000E+00  0.00000000E+00  0.00000000E+00
  0.00000000E+00  0.00000000E+00  0.00000000E+00
  0.00000000E+00  0.00000000E+00  0.00000000E+00
  0.00000000E+00  0.00000000E+00  0.00000000E+00
  0.00000000E+00  0.00000000E+00  0.00000000E+00
  0.00000000E+00  0.00000000E+00  0.00000000E+00
  0.00000000E+00  0.00000000E+00  0.00000000E+00
  0.00000000E+00  0.00000000E+00  0.00000000E+00
  0.00000000E+00  0.00000000E+00  0.00000000E+00
  0.00000000E+00  0.00000000E+00  0.00000000E+00
  0.00000000E+00  0.00000000E+00  0.00000000E+00
  0.00000000E+00  0.00000000E+00  0.00000000E+00
  0.00000000E+00  0.00000000E+00  0.00000000E+00
  0.00000000E+00  0.00000000E+00  0.00000000E+00
  0.00000000E+00  0.00000000E+00  0.00000000E+00
  0.00000000E+00  0.00000000E+00  0.00000000E+00
  0.00000000E+00  0.00000000E+00  0.00000000E+00
  0.00000000E+00  0.00000000E+00  0.00000000E+00
  0.00000000E+00  0.00000000E+00  0.00000000E+00
  0.00000000E+00  0.00000000E+00  0.00000000E+00
  0.00000000E+00  0.00000000E+00  0.00000000E+00
  0.00000000E+00  0.00000000E+00  0.00000000E+00
  0.00000000E+00  0.00000000E+00  0.00000000E+00
  0.00000000E+00  0.00000000E+00  0.00000000E+00
  0.00000000E+00  0.00000000E+00  0.00000000E+00
  0.00000000E+00  0.00000000E+00  0.00000000E+00
  0.00000000E+00  0.00000000E+00  0.00000000E+00
  0.00000000E+00  0.00000000E+00  0.00000000E+00
  0.00000000E+00  0.00000000E+00  0.00000000E+00
  0.00000000E+00  0.00000000E+00  0.00000000E+00
  0.00000000E+00  0.00000000E+00  0.00000000E+00
  0.00000000E+00  0.00000000E+00  0.00000000E+00
