 C  N  H Fe                             
   1.00000000000000     
    11.1274159592271893  -19.2735313887481823    0.0272180918070703
    11.1280009593381788   19.2740319328086187    0.0380421404616209
     0.0411190049550106    0.0036507543516437   25.4835010012739360
   C    N    H    Fe
   194    12    20     1
Direct
  0.0000395463858746  0.9999268619465561  0.0483020817297354
  0.0371925058331308  0.0740833997056194  0.0470559733334824
  0.0001416451606922  0.1111269869432228  0.0476103098685132
  0.0372509365389353  0.1852416412654209  0.0458073408169133
  0.0001929212087965  0.2222529794103055  0.0461440325547398
  0.0372671187475033  0.2963709660742059  0.0435315525791160
  0.0001529111139694  0.3333271835543601  0.0435115376215452
  0.0372013378312218  0.4074103340876433  0.0409137026962190
  0.0000627714389332  0.4443839264669334  0.0418849130996811
  0.0371154998965607  0.5184806147062606  0.0415664997364230
  0.9999978136672129  0.5554420738151618  0.0431603084275350
  0.0370451895813678  0.6295280435600218  0.0446667673477345
  0.9999010615217684  0.6664539663393662  0.0459095081743465
  0.0369427454477423  0.7405307465553708  0.0475671656350526
  0.9998251563820207  0.7775285773754320  0.0480408492925841
  0.0369215667758412  0.8516545595555378  0.0486979023778200
  0.9998875871911237  0.8886919415677385  0.0486448621225662
  0.0370381502104870  0.9628893315252379  0.0481720141408779
  0.1111482213988208  0.9999900406673229  0.0464156335793109
  0.1482158020406450  0.0740484474135511  0.0435010678660594
  0.1112233070935606  0.1111074986638150  0.0440833823696141
  0.1482881265204850  0.1852071638591526  0.0412845690860343
  0.1113126078337092  0.2222555600400378  0.0425270693490268
  0.1483320669885247  0.2963435990025630  0.0397135050568086
  0.1112789882997706  0.3333891431000236  0.0401221798672506
  0.1482393021986016  0.4074250272951070  0.0367220935085541
  0.1112053410730872  0.4444296858467878  0.0373830951837799
  0.1482624343484011  0.5185806364622303  0.0361374962049087
  0.1112504900266065  0.5555345151485335  0.0394254374599232
  0.1482690698013420  0.6296148471911421  0.0412299683600704
  0.1111478883058461  0.6665236252169729  0.0444109460219112
  0.1481533735814739  0.7405834776725250  0.0463065985428577
  0.1110417552016103  0.7775405950677950  0.0478333516919812
  0.1481181056168027  0.8516926874998945  0.0482749068881848
  0.1110694816542540  0.8887265305845405  0.0483353029121327
  0.1481635664435885  0.9628641742618612  0.0466975575328025
  0.2222314406709507  0.9999296567893199  0.0449052448581817
  0.2592550702130226  0.0740355949226060  0.0415683068187520
  0.2222783709124101  0.1110746275685786  0.0403118726355768
  0.2592824652364574  0.1851143596418564  0.0372721663604655
  0.2222449841333245  0.2221689256927802  0.0375697027886180
  0.2592189968245515  0.2962250289860976  0.0355561636868776
  0.2222668657913385  0.3333041929940709  0.0362632980171438
  0.2592526801476450  0.4074214242435683  0.0339009653540623
  0.2222861519866962  0.4444631532360686  0.0337942114943505
  0.2593312894813704  0.5185958374182633  0.0326063634583208
  0.2222884618107092  0.5556330829460291  0.0341065265316233
  0.2593500017765905  0.6297363002333173  0.0360054661639931
  0.2223583579493111  0.6666221901400001  0.0399911241697868
  0.2593420836017452  0.7406426541716629  0.0433180199028070
  0.2222698761874339  0.7775924273437647  0.0460667200481455
  0.2592917691030018  0.8516991047830483  0.0475311688723175
  0.2222030360738139  0.8887340297555822  0.0479095580551270
  0.2592494353023825  0.9628882328844072  0.0466703364199085
  0.3333681916411012  0.9999737520280801  0.0465234840525498
  0.3703763435659240  0.0741193869879514  0.0441245011392866
  0.3333233023005045  0.1111089681527616  0.0409677363550778
  0.3703263694393009  0.1851407542617286  0.0378201937616160
  0.3332648666813358  0.2221053549501373  0.0357217709881432
  0.3703581942268836  0.2962370602523484  0.0340790073608123
  0.3333126249440402  0.3332683991775255  0.0338777058415679
  0.3703310508863374  0.4073647197011293  0.0331016922047069
  0.3333434414767226  0.4444666577683080  0.0327355318225463
  0.3704285203171151  0.5185951408302155  0.0321583113464122
  0.3333654065110031  0.5556200823864722  0.0322594264342753
  0.3704913397060729  0.6297367980211379  0.0339362463224140
  0.3334267358448383  0.6666957827315547  0.0362983950126686
  0.3704377872680391  0.7406246855046134  0.0403407550723388
  0.3334098697631001  0.7776238327957692  0.0435033439338280
  0.3703994215421259  0.8516716200039398  0.0462394351784298
  0.3333626431174984  0.8887224245183005  0.0475492761876135
  0.3703981778074756  0.9629053162461806  0.0477017706128873
  0.4444576896016023  0.9999440092671433  0.0476437906880155
  0.4814608393572191  0.0740844552572145  0.0462217481215383
  0.4444613669785777  0.1111501751826317  0.0439887429122770
  0.4814707944103289  0.1852276567262439  0.0405489526819019
  0.4444452493679508  0.2221757553537603  0.0375132621935562
  0.4815454709670028  0.2962243629744151  0.0344893248644331
  0.4444569374003905  0.3332343361365004  0.0333372638531087
  0.4815618201665073  0.4072886015918843  0.0326017887128419
  0.4444840310605077  0.4443736946608270  0.0328752445289580
  0.4816041919329082  0.5185736046698673  0.0327396277118367
  0.4445308144895930  0.5556275397083874  0.0325296533839405
  0.4816294002997185  0.6296971702470712  0.0332504891902806
  0.4445169747639194  0.6666587747296996  0.0347577640917927
  0.4815761119033977  0.7406697113403212  0.0378554953857884
  0.4445287602033080  0.7775928237389349  0.0410150788728206
  0.4815088123438226  0.8516513370118105  0.0443109671036150
  0.4444941374700181  0.8886917132663049  0.0464873579706405
  0.4814906883270411  0.9628335424417596  0.0476902056318424
  0.5555387003441463  0.9998648914561943  0.0476364897127162
  0.5925749142244349  0.0740472546202981  0.0472640070275438
  0.5555567070192167  0.1111081147051083  0.0458327366468744
  0.5925720038909665  0.1851826844317125  0.0428975049761800
  0.5555716944209671  0.2222119291736742  0.0397172253407963
  0.5926126778088413  0.2961708771188671  0.0356833549110569
  0.5555600148486493  0.3331634598563036  0.0335457434030079
  0.5927057183500959  0.4073052173421930  0.0320990347876795
  0.5556743104870265  0.4443375566577470  0.0320861083479526
  0.5927558280516001  0.5184742479662250  0.0326140911235866
  0.5557722170339722  0.5555776869826197  0.0328520337203640
  0.5927726410844704  0.6296456761555542  0.0335772464062063
  0.5557054107092655  0.6666688225726684  0.0338641074733061
  0.5927741304592842  0.7407727325138885  0.0356661798092109
  0.5557000010546735  0.7776873956676207  0.0380333835497639
  0.5926775170237537  0.8517122495961200  0.0412773146838725
  0.5555942855634156  0.8886848122182722  0.0443696190820609
  0.5925742339366432  0.9627985615977783  0.0466031041471628
  0.6666873045356539  0.9998741248536299  0.0467787490271215
  0.7037281277159628  0.0740278623469716  0.0478083144244060
  0.6666487504970458  0.1110713876660135  0.0472032425176332
  0.7036726853030159  0.1851750489529990  0.0455428783362755
  0.6666336369746469  0.2221630950510087  0.0426534760559172
  0.7036435781522308  0.2962120462997377  0.0393389432770395
  0.6666945231535549  0.3331478475397379  0.0354674801447650
  0.7037832553759690  0.4072867707594282  0.0340539391596094
  0.6667587087070255  0.4443390456554183  0.0326956438624055
  0.7037790844401641  0.5184376487922745  0.0341358611874436
  0.6668044138566991  0.5554888798770730  0.0339925520348021
  0.7037703039216461  0.6295785033024941  0.0363026873497576
  0.6668297674785183  0.6666573860488757  0.0354022633615599
  0.7038074444349202  0.7407061366563978  0.0375343217791923
  0.6667668825255073  0.7777497422037233  0.0373416871132115
  0.7037364551724136  0.8517398119936992  0.0405188168630520
  0.6667401247593757  0.8887753832758792  0.0418477936636865
  0.7037184821284701  0.9628479320015212  0.0451866688143731
  0.7777732087258894  0.9998992594518346  0.0469754372379802
  0.8148505099821359  0.0740206829824366  0.0484292090360883
  0.7777990588765986  0.1110544232749373  0.0481736408274878
  0.8148750002754904  0.1852091351689916  0.0475176436755322
  0.7777846227779154  0.2221749618020178  0.0458134024773231
  0.8148066952564516  0.2962577308144992  0.0438857440347480
  0.7777231554423311  0.3332163844137588  0.0407451622724978
  0.8147547207135299  0.4073058773678142  0.0393433658758826
  0.7777580325225985  0.4443062788165840  0.0364422787416428
  0.8147772515731002  0.5184041176028764  0.0381347394500848
  0.7777517343062960  0.5554176171526236  0.0373704189591617
  0.8146992163643129  0.6294384184720080  0.0406433765165751
  0.7776663326280816  0.6664969018649723  0.0399440539865282
  0.8146654288778181  0.7405480809295220  0.0426420195348784
  0.7776975211341629  0.7776127733457440  0.0413186427889479
  0.8147322163072515  0.8516651906914404  0.0442250415113975
  0.7777375183845747  0.8887213601651036  0.0437905058481032
  0.8147848940477862  0.9627779251868179  0.0467398804636313
  0.8888796169766835  0.9998605352538736  0.0483726508055231
  0.9260258074288021  0.0740533566551221  0.0487263052140696
  0.8889964383522071  0.1110869894983748  0.0487167226065723
  0.9261003601127230  0.1852262740958560  0.0478391436272504
  0.8889828773459103  0.2222233316621432  0.0472208987183755
  0.9260234222529027  0.2962953517252335  0.0453926861585128
  0.8888950148681153  0.3332397017269569  0.0441757609013222
  0.9259549647557870  0.4073447532144389  0.0428286339678483
  0.8888562623556333  0.4443218378808330  0.0415505215163197
  0.9259111320605661  0.5184179632444939  0.0422626890701760
  0.8887523450672227  0.5553856213950469  0.0416530924870755
  0.9257847811799869  0.6294405582531042  0.0441578140145872
  0.8886679348272497  0.6664064869238412  0.0440496459645343
  0.9257338976899318  0.7405078172611536  0.0464261589269233
  0.8886827687209455  0.7775197268770107  0.0459555215325896
  0.9257935057395282  0.8516356104137218  0.0476536563902596
  0.8887428400275925  0.8886769964049622  0.0471530606959814
  0.9258778557768699  0.9628146386455688  0.0483882244428813
  0.2700875158661176  0.1346754362941618  0.1641143250549798
  0.3393379597135850  0.1899570517903789  0.1639630161542558
  0.3506570457469382  0.2575651604885820  0.1628650870356841
  0.2953547389095285  0.2717165276729143  0.1620620574758949
  0.2263623718601692  0.2169197619730723  0.1621702275947768
  0.2143795882608405  0.1491055327161596  0.1633329491526284
  0.3263967277277675  0.3467392405178563  0.1601074916116847
  0.4145990706597849  0.3246253007601307  0.1609456080880667
  0.3186222799069175  0.4472542582762691  0.1595009974999203
  0.3951072123751171  0.5620141519731809  0.1597010008284500
  0.2781533550890137  0.4825417271912054  0.1602088198474711
  0.3265987287657210  0.5545764249151217  0.1600812419760910
  0.3037549680855527  0.6030809509572052  0.1590620551738453
  0.2325352549634178  0.5782532529370988  0.1586825750894746
  0.1833915542752179  0.5056534828460654  0.1591930150858979
  0.2067110962442933  0.4571032494081573  0.1598483921868065
  0.5350076086024480  0.3917927023036927  0.1600570755878756
  0.6115095431366958  0.5064379246678775  0.1604015028878314
  0.6260078477742151  0.3503901224871859  0.1590887504813426
  0.6971701300746684  0.3749671593981120  0.1593449386748963
  0.7464314083037664  0.4475070888501350  0.1605789094823323
  0.7233368655980599  0.4962657622835954  0.1610592398551105
  0.6519400104933839  0.4710574102096863  0.1609373764221104
  0.6033977757124732  0.3990638102512303  0.1603204049673697
  0.6035798834557848  0.6068545541926679  0.1610084805016684
  0.5156008105993499  0.6293801780233071  0.1608391205948389
  0.6347715110187596  0.6818049268260807  0.1628067557617092
  0.7039707288230649  0.7360355762378484  0.1635867655837330
  0.7166601265596737  0.8040574618961803  0.1643164864574872
  0.6614181946693873  0.8191618522769455  0.1638958870808798
  0.5918865397394479  0.7643839300403668  0.1632193642798232
  0.5797474240061716  0.6964127983596597  0.1626835549851090
  0.3987440567067137  0.3778140245660065  0.1594267974521286
  0.2892103752304845  0.3785038432388080  0.1596774508094246
  0.3891993716047176  0.4963027531072369  0.1591190211640414
  0.4769764388084952  0.3303766341590071  0.1606627461863424
  0.5409282901061054  0.4574889804307822  0.1597993493185158
  0.6408372124554639  0.5751382785791063  0.1607905205491617
  0.5313204150508465  0.5760145755906738  0.1599276517734934
  0.4531385983959996  0.6234788125141710  0.1603483173080486
  0.1125913722962258  0.4833588688954060  0.1597963956660412
  0.6767845467577421  0.8882337406455580  0.1651753179086110
  0.8170875040634381  0.4695333686809561  0.1622500548360084
  0.2556946974737035  0.0659674451152476  0.1659801818940755
  0.3829334816025581  0.1803987086145577  0.1633702132957337
  0.1833465094230684  0.2272158289861380  0.1599476117589376
  0.1612297503463446  0.1054928013300862  0.1619460160017567
  0.3409760407486744  0.6585857302346251  0.1571571725944831
  0.2132473834785222  0.6147105927596592  0.1561596151760907
  0.1700905091237934  0.4013780222080529  0.1587355255362740
  0.5886634198063108  0.2949968816706757  0.1565486665210130
  0.7163294392002706  0.3384205711215182  0.1567871089690127
  0.7601483840889930  0.5519675428975382  0.1604895113100372
  0.7465618781287580  0.7250179842428848  0.1623376596889949
  0.7700502680893527  0.8473187170103145  0.1635908699904904
  0.5488151033471397  0.7746923457895154  0.1616995682803208
  0.0814581137763643  0.4344221678207958  0.1461039359246979
  0.0996300217412867  0.5172799601365202  0.1437388560913293
  0.7241073205299068  0.9229600110267014  0.1500753028792472
  0.6390555493963680  0.8963284808904280  0.1501053479987504
  0.8306490390375157  0.4357209067623755  0.1470255371852868
  0.8491371155632790  0.5188494665229948  0.1493540250321506
  0.2095276503934373  0.0307108818883544  0.1498981575615607
  0.2949045604676258  0.0587865277971621  0.1528590074064095
  0.4650524009170440  0.4769329494389091  0.1580700499676367
 
  0.00000000E+00  0.00000000E+00  0.00000000E+00
  0.00000000E+00  0.00000000E+00  0.00000000E+00
  0.00000000E+00  0.00000000E+00  0.00000000E+00
  0.00000000E+00  0.00000000E+00  0.00000000E+00
  0.00000000E+00  0.00000000E+00  0.00000000E+00
  0.00000000E+00  0.00000000E+00  0.00000000E+00
  0.00000000E+00  0.00000000E+00  0.00000000E+00
  0.00000000E+00  0.00000000E+00  0.00000000E+00
  0.00000000E+00  0.00000000E+00  0.00000000E+00
  0.00000000E+00  0.00000000E+00  0.00000000E+00
  0.00000000E+00  0.00000000E+00  0.00000000E+00
  0.00000000E+00  0.00000000E+00  0.00000000E+00
  0.00000000E+00  0.00000000E+00  0.00000000E+00
  0.00000000E+00  0.00000000E+00  0.00000000E+00
  0.00000000E+00  0.00000000E+00  0.00000000E+00
  0.00000000E+00  0.00000000E+00  0.00000000E+00
  0.00000000E+00  0.00000000E+00  0.00000000E+00
  0.00000000E+00  0.00000000E+00  0.00000000E+00
  0.00000000E+00  0.00000000E+00  0.00000000E+00
  0.00000000E+00  0.00000000E+00  0.00000000E+00
  0.00000000E+00  0.00000000E+00  0.00000000E+00
  0.00000000E+00  0.00000000E+00  0.00000000E+00
  0.00000000E+00  0.00000000E+00  0.00000000E+00
  0.00000000E+00  0.00000000E+00  0.00000000E+00
  0.00000000E+00  0.00000000E+00  0.00000000E+00
  0.00000000E+00  0.00000000E+00  0.00000000E+00
  0.00000000E+00  0.00000000E+00  0.00000000E+00
  0.00000000E+00  0.00000000E+00  0.00000000E+00
  0.00000000E+00  0.00000000E+00  0.00000000E+00
  0.00000000E+00  0.00000000E+00  0.00000000E+00
  0.00000000E+00  0.00000000E+00  0.00000000E+00
  0.00000000E+00  0.00000000E+00  0.00000000E+00
  0.00000000E+00  0.00000000E+00  0.00000000E+00
  0.00000000E+00  0.00000000E+00  0.00000000E+00
  0.00000000E+00  0.00000000E+00  0.00000000E+00
  0.00000000E+00  0.00000000E+00  0.00000000E+00
  0.00000000E+00  0.00000000E+00  0.00000000E+00
  0.00000000E+00  0.00000000E+00  0.00000000E+00
  0.00000000E+00  0.00000000E+00  0.00000000E+00
  0.00000000E+00  0.00000000E+00  0.00000000E+00
  0.00000000E+00  0.00000000E+00  0.00000000E+00
  0.00000000E+00  0.00000000E+00  0.00000000E+00
  0.00000000E+00  0.00000000E+00  0.00000000E+00
  0.00000000E+00  0.00000000E+00  0.00000000E+00
  0.00000000E+00  0.00000000E+00  0.00000000E+00
  0.00000000E+00  0.00000000E+00  0.00000000E+00
  0.00000000E+00  0.00000000E+00  0.00000000E+00
  0.00000000E+00  0.00000000E+00  0.00000000E+00
  0.00000000E+00  0.00000000E+00  0.00000000E+00
  0.00000000E+00  0.00000000E+00  0.00000000E+00
  0.00000000E+00  0.00000000E+00  0.00000000E+00
  0.00000000E+00  0.00000000E+00  0.00000000E+00
  0.00000000E+00  0.00000000E+00  0.00000000E+00
  0.00000000E+00  0.00000000E+00  0.00000000E+00
  0.00000000E+00  0.00000000E+00  0.00000000E+00
  0.00000000E+00  0.00000000E+00  0.00000000E+00
  0.00000000E+00  0.00000000E+00  0.00000000E+00
  0.00000000E+00  0.00000000E+00  0.00000000E+00
  0.00000000E+00  0.00000000E+00  0.00000000E+00
  0.00000000E+00  0.00000000E+00  0.00000000E+00
  0.00000000E+00  0.00000000E+00  0.00000000E+00
  0.00000000E+00  0.00000000E+00  0.00000000E+00
  0.00000000E+00  0.00000000E+00  0.00000000E+00
  0.00000000E+00  0.00000000E+00  0.00000000E+00
  0.00000000E+00  0.00000000E+00  0.00000000E+00
  0.00000000E+00  0.00000000E+00  0.00000000E+00
  0.00000000E+00  0.00000000E+00  0.00000000E+00
  0.00000000E+00  0.00000000E+00  0.00000000E+00
  0.00000000E+00  0.00000000E+00  0.00000000E+00
  0.00000000E+00  0.00000000E+00  0.00000000E+00
  0.00000000E+00  0.00000000E+00  0.00000000E+00
  0.00000000E+00  0.00000000E+00  0.00000000E+00
  0.00000000E+00  0.00000000E+00  0.00000000E+00
  0.00000000E+00  0.00000000E+00  0.00000000E+00
  0.00000000E+00  0.00000000E+00  0.00000000E+00
  0.00000000E+00  0.00000000E+00  0.00000000E+00
  0.00000000E+00  0.00000000E+00  0.00000000E+00
  0.00000000E+00  0.00000000E+00  0.00000000E+00
  0.00000000E+00  0.00000000E+00  0.00000000E+00
  0.00000000E+00  0.00000000E+00  0.00000000E+00
  0.00000000E+00  0.00000000E+00  0.00000000E+00
  0.00000000E+00  0.00000000E+00  0.00000000E+00
  0.00000000E+00  0.00000000E+00  0.00000000E+00
  0.00000000E+00  0.00000000E+00  0.00000000E+00
  0.00000000E+00  0.00000000E+00  0.00000000E+00
  0.00000000E+00  0.00000000E+00  0.00000000E+00
  0.00000000E+00  0.00000000E+00  0.00000000E+00
  0.00000000E+00  0.00000000E+00  0.00000000E+00
  0.00000000E+00  0.00000000E+00  0.00000000E+00
  0.00000000E+00  0.00000000E+00  0.00000000E+00
  0.00000000E+00  0.00000000E+00  0.00000000E+00
  0.00000000E+00  0.00000000E+00  0.00000000E+00
  0.00000000E+00  0.00000000E+00  0.00000000E+00
  0.00000000E+00  0.00000000E+00  0.00000000E+00
  0.00000000E+00  0.00000000E+00  0.00000000E+00
  0.00000000E+00  0.00000000E+00  0.00000000E+00
  0.00000000E+00  0.00000000E+00  0.00000000E+00
  0.00000000E+00  0.00000000E+00  0.00000000E+00
  0.00000000E+00  0.00000000E+00  0.00000000E+00
  0.00000000E+00  0.00000000E+00  0.00000000E+00
  0.00000000E+00  0.00000000E+00  0.00000000E+00
  0.00000000E+00  0.00000000E+00  0.00000000E+00
  0.00000000E+00  0.00000000E+00  0.00000000E+00
  0.00000000E+00  0.00000000E+00  0.00000000E+00
  0.00000000E+00  0.00000000E+00  0.00000000E+00
  0.00000000E+00  0.00000000E+00  0.00000000E+00
  0.00000000E+00  0.00000000E+00  0.00000000E+00
  0.00000000E+00  0.00000000E+00  0.00000000E+00
  0.00000000E+00  0.00000000E+00  0.00000000E+00
  0.00000000E+00  0.00000000E+00  0.00000000E+00
  0.00000000E+00  0.00000000E+00  0.00000000E+00
  0.00000000E+00  0.00000000E+00  0.00000000E+00
  0.00000000E+00  0.00000000E+00  0.00000000E+00
  0.00000000E+00  0.00000000E+00  0.00000000E+00
  0.00000000E+00  0.00000000E+00  0.00000000E+00
  0.00000000E+00  0.00000000E+00  0.00000000E+00
  0.00000000E+00  0.00000000E+00  0.00000000E+00
  0.00000000E+00  0.00000000E+00  0.00000000E+00
  0.00000000E+00  0.00000000E+00  0.00000000E+00
  0.00000000E+00  0.00000000E+00  0.00000000E+00
  0.00000000E+00  0.00000000E+00  0.00000000E+00
  0.00000000E+00  0.00000000E+00  0.00000000E+00
  0.00000000E+00  0.00000000E+00  0.00000000E+00
  0.00000000E+00  0.00000000E+00  0.00000000E+00
  0.00000000E+00  0.00000000E+00  0.00000000E+00
  0.00000000E+00  0.00000000E+00  0.00000000E+00
  0.00000000E+00  0.00000000E+00  0.00000000E+00
  0.00000000E+00  0.00000000E+00  0.00000000E+00
  0.00000000E+00  0.00000000E+00  0.00000000E+00
  0.00000000E+00  0.00000000E+00  0.00000000E+00
  0.00000000E+00  0.00000000E+00  0.00000000E+00
  0.00000000E+00  0.00000000E+00  0.00000000E+00
  0.00000000E+00  0.00000000E+00  0.00000000E+00
  0.00000000E+00  0.00000000E+00  0.00000000E+00
  0.00000000E+00  0.00000000E+00  0.00000000E+00
  0.00000000E+00  0.00000000E+00  0.00000000E+00
  0.00000000E+00  0.00000000E+00  0.00000000E+00
  0.00000000E+00  0.00000000E+00  0.00000000E+00
  0.00000000E+00  0.00000000E+00  0.00000000E+00
  0.00000000E+00  0.00000000E+00  0.00000000E+00
  0.00000000E+00  0.00000000E+00  0.00000000E+00
  0.00000000E+00  0.00000000E+00  0.00000000E+00
  0.00000000E+00  0.00000000E+00  0.00000000E+00
  0.00000000E+00  0.00000000E+00  0.00000000E+00
  0.00000000E+00  0.00000000E+00  0.00000000E+00
  0.00000000E+00  0.00000000E+00  0.00000000E+00
  0.00000000E+00  0.00000000E+00  0.00000000E+00
  0.00000000E+00  0.00000000E+00  0.00000000E+00
  0.00000000E+00  0.00000000E+00  0.00000000E+00
  0.00000000E+00  0.00000000E+00  0.00000000E+00
  0.00000000E+00  0.00000000E+00  0.00000000E+00
  0.00000000E+00  0.00000000E+00  0.00000000E+00
  0.00000000E+00  0.00000000E+00  0.00000000E+00
  0.00000000E+00  0.00000000E+00  0.00000000E+00
  0.00000000E+00  0.00000000E+00  0.00000000E+00
  0.00000000E+00  0.00000000E+00  0.00000000E+00
  0.00000000E+00  0.00000000E+00  0.00000000E+00
  0.00000000E+00  0.00000000E+00  0.00000000E+00
  0.00000000E+00  0.00000000E+00  0.00000000E+00
  0.00000000E+00  0.00000000E+00  0.00000000E+00
  0.00000000E+00  0.00000000E+00  0.00000000E+00
  0.00000000E+00  0.00000000E+00  0.00000000E+00
  0.00000000E+00  0.00000000E+00  0.00000000E+00
  0.00000000E+00  0.00000000E+00  0.00000000E+00
  0.00000000E+00  0.00000000E+00  0.00000000E+00
  0.00000000E+00  0.00000000E+00  0.00000000E+00
  0.00000000E+00  0.00000000E+00  0.00000000E+00
  0.00000000E+00  0.00000000E+00  0.00000000E+00
  0.00000000E+00  0.00000000E+00  0.00000000E+00
  0.00000000E+00  0.00000000E+00  0.00000000E+00
  0.00000000E+00  0.00000000E+00  0.00000000E+00
  0.00000000E+00  0.00000000E+00  0.00000000E+00
  0.00000000E+00  0.00000000E+00  0.00000000E+00
  0.00000000E+00  0.00000000E+00  0.00000000E+00
  0.00000000E+00  0.00000000E+00  0.00000000E+00
  0.00000000E+00  0.00000000E+00  0.00000000E+00
  0.00000000E+00  0.00000000E+00  0.00000000E+00
  0.00000000E+00  0.00000000E+00  0.00000000E+00
  0.00000000E+00  0.00000000E+00  0.00000000E+00
  0.00000000E+00  0.00000000E+00  0.00000000E+00
  0.00000000E+00  0.00000000E+00  0.00000000E+00
  0.00000000E+00  0.00000000E+00  0.00000000E+00
  0.00000000E+00  0.00000000E+00  0.00000000E+00
  0.00000000E+00  0.00000000E+00  0.00000000E+00
  0.00000000E+00  0.00000000E+00  0.00000000E+00
  0.00000000E+00  0.00000000E+00  0.00000000E+00
  0.00000000E+00  0.00000000E+00  0.00000000E+00
  0.00000000E+00  0.00000000E+00  0.00000000E+00
  0.00000000E+00  0.00000000E+00  0.00000000E+00
  0.00000000E+00  0.00000000E+00  0.00000000E+00
  0.00000000E+00  0.00000000E+00  0.00000000E+00
  0.00000000E+00  0.00000000E+00  0.00000000E+00
  0.00000000E+00  0.00000000E+00  0.00000000E+00
  0.00000000E+00  0.00000000E+00  0.00000000E+00
  0.00000000E+00  0.00000000E+00  0.00000000E+00
  0.00000000E+00  0.00000000E+00  0.00000000E+00
  0.00000000E+00  0.00000000E+00  0.00000000E+00
  0.00000000E+00  0.00000000E+00  0.00000000E+00
  0.00000000E+00  0.00000000E+00  0.00000000E+00
  0.00000000E+00  0.00000000E+00  0.00000000E+00
  0.00000000E+00  0.00000000E+00  0.00000000E+00
  0.00000000E+00  0.00000000E+00  0.00000000E+00
  0.00000000E+00  0.00000000E+00  0.00000000E+00
  0.00000000E+00  0.00000000E+00  0.00000000E+00
  0.00000000E+00  0.00000000E+00  0.00000000E+00
  0.00000000E+00  0.00000000E+00  0.00000000E+00
  0.00000000E+00  0.00000000E+00  0.00000000E+00
  0.00000000E+00  0.00000000E+00  0.00000000E+00
  0.00000000E+00  0.00000000E+00  0.00000000E+00
  0.00000000E+00  0.00000000E+00  0.00000000E+00
  0.00000000E+00  0.00000000E+00  0.00000000E+00
  0.00000000E+00  0.00000000E+00  0.00000000E+00
  0.00000000E+00  0.00000000E+00  0.00000000E+00
  0.00000000E+00  0.00000000E+00  0.00000000E+00
  0.00000000E+00  0.00000000E+00  0.00000000E+00
  0.00000000E+00  0.00000000E+00  0.00000000E+00
  0.00000000E+00  0.00000000E+00  0.00000000E+00
  0.00000000E+00  0.00000000E+00  0.00000000E+00
  0.00000000E+00  0.00000000E+00  0.00000000E+00
  0.00000000E+00  0.00000000E+00  0.00000000E+00
  0.00000000E+00  0.00000000E+00  0.00000000E+00
  0.00000000E+00  0.00000000E+00  0.00000000E+00
  0.00000000E+00  0.00000000E+00  0.00000000E+00
  0.00000000E+00  0.00000000E+00  0.00000000E+00
  0.00000000E+00  0.00000000E+00  0.00000000E+00
  0.00000000E+00  0.00000000E+00  0.00000000E+00
  0.00000000E+00  0.00000000E+00  0.00000000E+00
