 C  N Cr                                
   1.00000000000000     
    12.5418977990720322    0.0000000000000000    0.0000000000000000
    -0.0000000000000004   12.8452909765005039    0.0000000000000000
     0.0000000000000003    0.0000000000000000   19.8713392819153718
   C    N    Cr
    57     1     1
Direct
  0.0521191588959527  0.0476046791843759  0.1594095105644075
  0.1518776301663887  0.1022656377869434  0.1593765235052416
  0.1514224904561081  0.2131486858384190  0.1592939586100079
  0.0520797593441887  0.2685681614953010  0.1592492654724190
  0.2521365302959103  0.0473862090569852  0.1594084449363557
  0.3520974655206534  0.1023667331450331  0.1594189761857335
  0.3512531385497081  0.2139587999101922  0.1593659875270130
  0.2506477689372496  0.2684463865235052  0.1592825619362254
  0.4524952360653717  0.0473532759607887  0.1594704366165735
  0.5523086195585482  0.1049275459046925  0.1595079706794273
  0.5523164597500243  0.2166333155351952  0.1594476670718387
  0.4498098339194837  0.2717741395757258  0.1593859141433094
  0.6522183797087782  0.0475598471263067  0.1594774824875732
  0.7525477511759188  0.1024050489847288  0.1594274478213409
  0.7533416508938565  0.2140364231325613  0.1593844372052276
  0.6549466638394159  0.2716514661506595  0.1593891021722878
  0.8522597990145803  0.0472564646808089  0.1594071817954501
  0.9523554101852822  0.1023775733283001  0.1593726649194954
  0.9526664409143357  0.2134106470279662  0.1592959227673049
  0.8534842199724652  0.2690901346309725  0.1593052331981016
  0.0519094211784830  0.3802419350128220  0.1592075970854593
  0.1494809757253946  0.4360463663325375  0.1591886435941780
  0.1493134907286772  0.5476126894481176  0.1591971932428566
  0.0518299952857870  0.6035632081042352  0.1592251259321984
  0.2474090953959281  0.3795659599484737  0.1592295409087293
  0.3444616146272064  0.4351393472626585  0.1592506476084176
  0.3440792738886806  0.5487892979958972  0.1592220936116946
  0.2471293455198179  0.6040986203798028  0.1592190715394310
  0.7586392214983654  0.4360077883265654  0.1592729729906267
  0.7592147976481127  0.5503709511859516  0.1592801303838139
  0.8562353595647556  0.3806156313816662  0.1592421800087167
  0.9544487805782070  0.4362640718175463  0.1591882061975770
  0.9542995611386218  0.5475233223304417  0.1591877060427070
  0.8566485630035450  0.6045646310827628  0.1592127216149435
  0.0522343621964911  0.7152331688297634  0.1592655381496217
  0.1514813073237957  0.7706868457052330  0.1593049636215822
  0.0521853583840331  0.9366078482358158  0.1594277366121204
  0.2505128450403557  0.7152395831107475  0.1592780062467400
  0.3509922881727242  0.7698681588632745  0.1593636676966109
  0.3519287185453074  0.8811633625293522  0.1594127280099089
  0.2521279077415530  0.9364819231437121  0.1594005443176829
  0.4493591395501257  0.7119685440000034  0.1593629171556699
  0.5527560840586960  0.7652106072585432  0.1594401291609524
  0.5529896598310923  0.8774498424330831  0.1594629771103807
  0.4526792827114536  0.9352528231232692  0.1594544482330357
  0.6562809323468267  0.7101770753216637  0.1594083283292915
  0.7538468630116210  0.7692701281954808  0.1593749895754916
  0.7524207586469510  0.8808833723091154  0.1594214543662938
  0.6523088824532373  0.9355302891923899  0.1594638016522157
  0.8543059437216245  0.7155153655216197  0.1592848939584005
  0.9532838970630670  0.7708643920049519  0.1593117438645713
  0.8522761721201217  0.9361867268766657  0.1594027911933631
  0.1518537216554368  0.8816963431812846  0.1593802850471215
  0.9525494500341277  0.8817125985866758  0.1593856090399563
  0.4436850932416524  0.3821445005658338  0.1593667399749160
  0.4429030500948492  0.6021532546126572  0.1592734400644888
  0.6606023027978163  0.3818667952502149  0.1593240636919913
  0.6637822065410064  0.6029950593490724  0.1593977006080870
  0.5513499597597067  0.4917963923275520  0.1596100414147409
 
  0.00000000E+00  0.00000000E+00  0.00000000E+00
  0.00000000E+00  0.00000000E+00  0.00000000E+00
  0.00000000E+00  0.00000000E+00  0.00000000E+00
  0.00000000E+00  0.00000000E+00  0.00000000E+00
  0.00000000E+00  0.00000000E+00  0.00000000E+00
  0.00000000E+00  0.00000000E+00  0.00000000E+00
  0.00000000E+00  0.00000000E+00  0.00000000E+00
  0.00000000E+00  0.00000000E+00  0.00000000E+00
  0.00000000E+00  0.00000000E+00  0.00000000E+00
  0.00000000E+00  0.00000000E+00  0.00000000E+00
  0.00000000E+00  0.00000000E+00  0.00000000E+00
  0.00000000E+00  0.00000000E+00  0.00000000E+00
  0.00000000E+00  0.00000000E+00  0.00000000E+00
  0.00000000E+00  0.00000000E+00  0.00000000E+00
  0.00000000E+00  0.00000000E+00  0.00000000E+00
  0.00000000E+00  0.00000000E+00  0.00000000E+00
  0.00000000E+00  0.00000000E+00  0.00000000E+00
  0.00000000E+00  0.00000000E+00  0.00000000E+00
  0.00000000E+00  0.00000000E+00  0.00000000E+00
  0.00000000E+00  0.00000000E+00  0.00000000E+00
  0.00000000E+00  0.00000000E+00  0.00000000E+00
  0.00000000E+00  0.00000000E+00  0.00000000E+00
  0.00000000E+00  0.00000000E+00  0.00000000E+00
  0.00000000E+00  0.00000000E+00  0.00000000E+00
  0.00000000E+00  0.00000000E+00  0.00000000E+00
  0.00000000E+00  0.00000000E+00  0.00000000E+00
  0.00000000E+00  0.00000000E+00  0.00000000E+00
  0.00000000E+00  0.00000000E+00  0.00000000E+00
  0.00000000E+00  0.00000000E+00  0.00000000E+00
  0.00000000E+00  0.00000000E+00  0.00000000E+00
  0.00000000E+00  0.00000000E+00  0.00000000E+00
  0.00000000E+00  0.00000000E+00  0.00000000E+00
  0.00000000E+00  0.00000000E+00  0.00000000E+00
  0.00000000E+00  0.00000000E+00  0.00000000E+00
  0.00000000E+00  0.00000000E+00  0.00000000E+00
  0.00000000E+00  0.00000000E+00  0.00000000E+00
  0.00000000E+00  0.00000000E+00  0.00000000E+00
  0.00000000E+00  0.00000000E+00  0.00000000E+00
  0.00000000E+00  0.00000000E+00  0.00000000E+00
  0.00000000E+00  0.00000000E+00  0.00000000E+00
  0.00000000E+00  0.00000000E+00  0.00000000E+00
  0.00000000E+00  0.00000000E+00  0.00000000E+00
  0.00000000E+00  0.00000000E+00  0.00000000E+00
  0.00000000E+00  0.00000000E+00  0.00000000E+00
  0.00000000E+00  0.00000000E+00  0.00000000E+00
  0.00000000E+00  0.00000000E+00  0.00000000E+00
  0.00000000E+00  0.00000000E+00  0.00000000E+00
  0.00000000E+00  0.00000000E+00  0.00000000E+00
  0.00000000E+00  0.00000000E+00  0.00000000E+00
  0.00000000E+00  0.00000000E+00  0.00000000E+00
  0.00000000E+00  0.00000000E+00  0.00000000E+00
  0.00000000E+00  0.00000000E+00  0.00000000E+00
  0.00000000E+00  0.00000000E+00  0.00000000E+00
  0.00000000E+00  0.00000000E+00  0.00000000E+00
  0.00000000E+00  0.00000000E+00  0.00000000E+00
  0.00000000E+00  0.00000000E+00  0.00000000E+00
  0.00000000E+00  0.00000000E+00  0.00000000E+00
  0.00000000E+00  0.00000000E+00  0.00000000E+00
  0.00000000E+00  0.00000000E+00  0.00000000E+00
