 C Co  N  H Br                          
   1.00000000000000     
    22.1399993895999998    0.0000000000000000    0.0000000000000000
   -11.0699996947999999   19.1738019112000018    0.0000000000000000
     0.0000000000000000    0.0000000000000000   16.0000000000000000
   C    Co   N    H    Br
   206     1     4    20     8
Direct
  0.0005816096219971  0.9988782386668321  0.0893794286569085
  0.0376323523347892  0.0729703120349141  0.0873440380860239
  0.0005920999055653  0.1100078318661531  0.0868095178163934
  0.0376228644767672  0.1840559183582444  0.0829406420168282
  0.0005668457729547  0.2210849852629064  0.0833875355114535
  0.0376030393243933  0.2951420561161700  0.0795130869870770
  0.0005566917071718  0.3321723936978094  0.0812592323092266
  0.0376166671588810  0.4062604816556861  0.0788647808966673
  0.0005746112432259  0.4432869822249710  0.0810090603783452
  0.0376300284542365  0.5173912217428606  0.0806214339313634
  0.0005844640573943  0.5544162109311674  0.0822317206803702
  0.0376331597377438  0.6285077389014573  0.0837102561874042
  0.0005712142526015  0.6655238041639672  0.0844798907741737
  0.0376136370431872  0.7395950261101987  0.0871405823915883
  0.0005509392830128  0.7766130481950245  0.0873165340216121
  0.0375945117010758  0.8506906627794326  0.0897808407354850
  0.0005471111365446  0.8877220424266543  0.0894962152611501
  0.0376080700205410  0.9618275997604029  0.0900663343949198
  0.1116825588432662  0.9988802718866318  0.0907396867273227
  0.1487329255936465  0.0729752810813635  0.0884097092120655
  0.1116998909968450  0.1100044684075305  0.0855706585325907
  0.1487202932514179  0.1840275805832133  0.0810587039990220
  0.1116564440248848  0.2210402821730255  0.0789295136863769
  0.1486728145861884  0.2950702765140279  0.0741615313480786
  0.1116205460442009  0.3321350807062338  0.0745636455304127
  0.1486868483053999  0.4062517159929935  0.0722151387895034
  0.1116589355609378  0.4432860991728624  0.0749917755114517
  0.1487372839537922  0.5174211108259177  0.0756144846712225
  0.1117093841815763  0.5544375661631298  0.0791980256568197
  0.1487580527356967  0.6285212133459673  0.0821260393879498
  0.1117064788900444  0.6655294645527089  0.0848411866487783
  0.1487292102509720  0.7395817693280040  0.0885389005949221
  0.1116682266602274  0.7766047111954465  0.0897275920030715
  0.1487002887527482  0.8506828702496640  0.0926421694753049
  0.1116536969734117  0.8877240468038629  0.0921476634022685
  0.1487124103069734  0.9618378855676134  0.0928059871609941
  0.2227791954853354  0.9988938602810729  0.0946316988576565
  0.2598359500831863  0.0730096976727927  0.0928883776862720
  0.2228163668338666  0.1100262191891815  0.0886544273627902
  0.2598363693003143  0.1840758960213526  0.0843666718181900
  0.2227894073105327  0.2210488053099615  0.0796306513005699
  0.2597979695742095  0.2950788206860782  0.0749027329517595
  0.2227506210142765  0.3320921057225822  0.0715833056878412
  0.2597873290540272  0.4062142711961873  0.0693145375029581
  0.2227614516786090  0.4433057886656420  0.0695324797292072
  0.2598356690249581  0.5174430694674158  0.0708429681938639
  0.2228256524249229  0.5544913664817155  0.0742444282791736
  0.2598675802381772  0.6285505310947107  0.0788439879636510
  0.2228353419958569  0.6655480095016625  0.0829515213652674
  0.2598378780979160  0.7395640999661395  0.0882004535244814
  0.2227885191320529  0.7765847582078241  0.0908666772198646
  0.2597989902365040  0.8506468180227956  0.0949605241464694
  0.2227554369684522  0.8877084571092463  0.0953077272847249
  0.2598010730386759  0.9618309955313704  0.0968249399197834
  0.3338700341254650  0.9988825845265634  0.0990203770118069
  0.3709243016143379  0.0730241668195905  0.0981927591592498
  0.3339087384744120  0.1100647876545983  0.0942811553577966
  0.3709439803138448  0.1841367841853143  0.0905592506410288
  0.3339187236255807  0.2211083441639174  0.0850558431915844
  0.3709400052096621  0.2951493190426425  0.0805162983636860
  0.3338879378363604  0.3321186091376174  0.0754861282700104
  0.3709329484177034  0.4062247468579461  0.0728391413548051
  0.3338828585809209  0.4432750779531828  0.0702542992433620
  0.3709472025218228  0.5174276102387095  0.0713988395537407
  0.3339153379475447  0.5545046831953913  0.0721684591435517
  0.3709511139347306  0.6285558828936451  0.0770789183435347
  0.3339357027835033  0.6655833947067571  0.0805615002741993
  0.3709289735281903  0.7395596419760034  0.0868345927371586
  0.3338956683856256  0.7765748894145083  0.0904642559154386
  0.3708997256825755  0.8506067103599515  0.0957948992519589
  0.3338591118303136  0.8876715999498401  0.0975325278132233
  0.3708985124607073  0.9617953239255228  0.1001475422374759
  0.4449860374380653  0.9988490085196434  0.1018395866521021
  0.4820467618049805  0.0730088047397604  0.1018140979381182
  0.4450112772505630  0.1100801625730043  0.0993603704829511
  0.4820596276018828  0.1841824775042661  0.0961043509135602
  0.4450279244665645  0.2211815105054539  0.0913597557034205
  0.4820628622357807  0.2952125804183948  0.0865289566602382
  0.4450228958489589  0.3321821173514454  0.0814117812797380
  0.4820655366012249  0.4062456695941751  0.0777681353662009
  0.4450157691403023  0.4432650721561648  0.0744313957682092
  0.4820742639505243  0.5173963210629047  0.0742170930336792
  0.4450203919745733  0.5544541880253940  0.0738612514442290
  0.4820622452961122  0.6285370495540846  0.0775055177734954
  0.4450078548626489  0.6655634400899624  0.0798967252415724
  0.4820244809206921  0.7395635029012467  0.0858393952778540
  0.4449870404995321  0.7765771065169464  0.0894188880544052
  0.4820108235162530  0.8505973188735659  0.0951327005187857
  0.4449774657749467  0.8876459231902664  0.0979754476225752
  0.4820251036464934  0.9617607241867349  0.1013447534761522
  0.5561287270665333  0.9988231265514168  0.1019558900244746
  0.5932060479083123  0.0729854290840676  0.1023412660693526
  0.5561565045300692  0.1100676153759829  0.1018122727199226
  0.5932110104310641  0.1841901964216593  0.0989916592327983
  0.5561577024395413  0.2212250590710012  0.0958103827112721
  0.5931847347048611  0.2952486122514439  0.0907558589331227
  0.5561480233393528  0.3322358876800041  0.0863261265117607
  0.5931903779521835  0.4062607870144321  0.0815358738979931
  0.5561475712389877  0.4432754786392037  0.0782800257561197
  0.5932069494138426  0.5173813343125979  0.0764995564967015
  0.5561515006901856  0.5544272860030208  0.0757961872277983
  0.5931985335087367  0.6285313679653204  0.0778672399320535
  0.5561286322077751  0.6655479041798874  0.0798322134486835
  0.5931471837072561  0.7395824472340899  0.0846043387613423
  0.5560962600705410  0.7765833335673634  0.0880821159042636
  0.5931264169663022  0.8506156302206737  0.0932073712102135
  0.5560978876262345  0.8876433695454797  0.0966332672155710
  0.5931604088530836  0.9617502878147151  0.1000033921290079
  0.6672642249338928  0.9988260421180970  0.0993688195943171
  0.7043514200095756  0.0729743272200845  0.0996185719542729
  0.6673104391437525  0.1100451634692806  0.1007619377280372
  0.7043676292033823  0.1841661003515394  0.0983147957579842
  0.6673035059477005  0.2212169572326765  0.0972063023313201
  0.7043133241291020  0.2952582324141326  0.0926057684621042
  0.6672570070055523  0.3322586554002283  0.0893170804517273
  0.7042590978978219  0.4062559145006310  0.0841994605928731
  0.6672479651355021  0.4432772692056826  0.0807609223626140
  0.7043048843238571  0.5173562280153082  0.0779830390844776
  0.6672868543093831  0.5544194881390309  0.0767994036074677
  0.7043318860645034  0.6285316901232876  0.0774720757419814
  0.6672759202922260  0.6655521541543540  0.0791206379087163
  0.7042893780203056  0.7396080776929044  0.0828504950492842
  0.6672256289652182  0.7766000680288949  0.0860560234514734
  0.7042496384380545  0.8506512421641085  0.0903426284454148
  0.6672158099702502  0.8876672051090713  0.0938363605698010
  0.7042866563292181  0.9617749875673361  0.0966404780646687
  0.7783753204968321  0.9988494330487556  0.0951432885228093
  0.8154582105140359  0.0729784517587566  0.0948100322828150
  0.7784262266622738  0.1100262782666323  0.0966600863469118
  0.8154862388023327  0.1841296608289803  0.0942084038535621
  0.7784308348264881  0.2211713036801091  0.0949257302975571
  0.8154528021965243  0.2952270559994064  0.0910988469729494
  0.7783777648237077  0.3322454243630772  0.0901111159652354
  0.8153913865710125  0.4062842723850800  0.0860141471704011
  0.7783323702276065  0.4432919830973416  0.0834911304549626
  0.8153811679247635  0.5173792273360144  0.0808619962777406
  0.7783643662033671  0.5544097137928675  0.0785748261183440
  0.8154144286716182  0.6285067886541563  0.0787970342844579
  0.7783870360551460  0.6655603834056928  0.0786800321330611
  0.8153953825904212  0.7396102389737592  0.0820394610975074
  0.7783497900553438  0.7766259569799138  0.0841599388731476
  0.8153720412224893  0.8506722128249727  0.0878317719008836
  0.7783380639248864  0.8876982314938258  0.0905400615157404
  0.8153994022803589  0.9618066611581050  0.0926351290550445
  0.8894798787877651  0.9988725580186604  0.0911577627519457
  0.9265443248191390  0.0729819769131606  0.0899873014655010
  0.8895081678888431  0.1100191558156594  0.0912296930449419
  0.9265583416736954  0.1840974423169874  0.0882834503717019
  0.8895102073292317  0.2211262354391783  0.0896472232272827
  0.9265475194044089  0.2951852864360716  0.0861533722203453
  0.8894884343402931  0.3322081834031205  0.0871683953102757
  0.9265235129305879  0.4062733013183039  0.0841616348246785
  0.8894646775778980  0.4432965972615907  0.0842180553058940
  0.9265053394144022  0.5173847241662620  0.0826215067903379
  0.8894511249087961  0.5544074147863346  0.0817897562481739
  0.9265087267420750  0.6285027115464702  0.0823879181648485
  0.8894532873872693  0.6655232159220114  0.0816041982263992
  0.9265015026638834  0.7395995730113555  0.0843547892099447
  0.8894440368932283  0.7766252319810021  0.0846830249972150
  0.9264835988751359  0.8506885356511819  0.0877119720499366
  0.8894432568419837  0.8877188905212309  0.0887132232851745
  0.9265023181919049  0.9618207032097830  0.0899841409502956
  0.6084041628332763  0.4756938519102860  0.3978974388973913
  0.6770565715354760  0.5116076409960620  0.3592332122316977
  0.6979704720573940  0.5814951658066223  0.3571101166417291
  0.6424205606443618  0.5895260507715102  0.3944224790039393
  0.6458292710776176  0.6514491506902409  0.4221840154712031
  0.5863326100340738  0.6515599804749923  0.4530468504204213
  0.5834028287506178  0.7085594082964265  0.4946253769699182
  0.5147185679950133  0.6921113620305420  0.4952587998396293
  0.4746699305815967  0.6249975825322820  0.4535206368210630
  0.4063711591179133  0.5950641091170060  0.4218506492783957
  0.3710840610694939  0.5263902632438237  0.3908140630174510
  0.3033037757715236  0.4908794447800364  0.3499566897393678
  0.2824670838232350  0.4210535291108441  0.3470347987907692
  0.3371124412330280  0.4124592529379262  0.3861162892742362
  0.3328469678990036  0.3497965775391261  0.4126334293802780
  0.3911365024798961  0.3486187383309386  0.4458796510024846
  0.5029449894706426  0.3762471418875662  0.4556845299161695
  0.4613074334202042  0.3085891733560148  0.4955562957741719
  0.3925069284715929  0.2909659103331121  0.4881457468938407
  0.5726953230523563  0.4070087733332867  0.4290305267335890
  0.6254515683600420  0.2712072399008438  0.3818058624776181
  0.5900892227271142  0.3088031879518882  0.3791573102145632
  0.6094853930265416  0.3659250819476554  0.4330164264780270
  0.6644279913334034  0.3844024949255389  0.4900776046902918
  0.6992495573357322  0.3463133131536450  0.4933912721222872
  0.6800261464801545  0.2897911954152000  0.4390402632438093
  0.7685638054722117  0.7349475911784515  0.4718652852030030
  0.7129551266522852  0.7192710182900964  0.4169527287975059
  0.7205997105111082  0.7685193568767319  0.3560445234256565
  0.7831164219414851  0.8320987104828693  0.3494967836158104
  0.8382789987291376  0.8474551113363320  0.4045871548964732
  0.8307360122657169  0.7988729077064264  0.4660233047034760
  0.1930262798008225  0.1713997648972517  0.3357317929484215
  0.1377494463805345  0.1568721212742628  0.3902695545215864
  0.1461912808439932  0.2051153321240781  0.4526071900594992
  0.2093961333083212  0.2678613251372116  0.4598262927458792
  0.2651268791599037  0.2827203575544179  0.4054551576888640
  0.2565739264826047  0.2338111636838308  0.3436340028301130
  0.3177262098721594  0.6266991134562803  0.4734469270532194
  0.2869238321229018  0.6685469100505930  0.4698164860606738
  0.3098502035681756  0.7224338790898495  0.4106590763159855
  0.3641094597044111  0.7346431549778528  0.3555306059791879
  0.3955217992106460  0.6933633176573892  0.3598784819409042
  0.3723705866933448  0.6388578893903114  0.4185971712732088
  0.4892055275954501  0.5006321817251811  0.4211746213188919
  0.5858646027742674  0.5234711885804569  0.4110720916239734
  0.3930725308112438  0.4782566190264350  0.4052873475418305
  0.4594162678660823  0.4025194546255195  0.4343342381552027
  0.5185660283922450  0.5982811882314713  0.4367473715138077
  0.6103290026351713  0.2273691820686312  0.3392605522269097
  0.5476411758432951  0.2945468807457154  0.3346732844651003
  0.6795293878995454  0.4287223429610153  0.5318122898705231
  0.7416621411732619  0.3610507010471581  0.5380385425401303
  0.7074826648543765  0.2603564378799997  0.4412639907807513
  0.7625332149904875  0.6969669832872308  0.5194412443530823
  0.6774996584528170  0.7562934461731101  0.3133211057414704
  0.7886412251064996  0.8695548376254039  0.3014762027206744
  0.8869411123065113  0.8971425905899750  0.3996972629795886
  0.8733609344602418  0.8107137776246841  0.5093242836530329
  0.1866731657611054  0.1341992172451542  0.2869683316133674
  0.0882690464940472  0.1081295754345011  0.3841758773015099
  0.1034650280797169  0.1940318092863207  0.4954063049051628
  0.2161389752721113  0.3057241675633786  0.5079197706669167
  0.2996364000431876  0.2454146370739854  0.3011228295788000
  0.2999345948131694  0.5846163124554050  0.5192034467554920
  0.2449165454249684  0.6590015655284316  0.5130659455821883
  0.2855997306019278  0.7548628000609980  0.4075906166864884
  0.3820880300366991  0.7763417511291282  0.3092339021362822
  0.4377612086483609  0.7026342922093809  0.3171109884706539
  0.7293083091312733  0.4743565491330079  0.3119312805532540
  0.7824506609064997  0.6489770748063610  0.3084606135045818
  0.4913789503141104  0.2560899598525493  0.5575187183504019
  0.3186436265230030  0.2095539705277597  0.5356029233282593
  0.1988454740613763  0.3544552706480503  0.2958620092402992
  0.2509711421430632  0.5280451508508941  0.3026729240505134
  0.6549732980759848  0.7872036984218264  0.5493637686876442
  0.4828812782300076  0.7457692897850373  0.5513136319448447
 
  0.00000000E+00  0.00000000E+00  0.00000000E+00
  0.00000000E+00  0.00000000E+00  0.00000000E+00
  0.00000000E+00  0.00000000E+00  0.00000000E+00
  0.00000000E+00  0.00000000E+00  0.00000000E+00
  0.00000000E+00  0.00000000E+00  0.00000000E+00
  0.00000000E+00  0.00000000E+00  0.00000000E+00
  0.00000000E+00  0.00000000E+00  0.00000000E+00
  0.00000000E+00  0.00000000E+00  0.00000000E+00
  0.00000000E+00  0.00000000E+00  0.00000000E+00
  0.00000000E+00  0.00000000E+00  0.00000000E+00
  0.00000000E+00  0.00000000E+00  0.00000000E+00
  0.00000000E+00  0.00000000E+00  0.00000000E+00
  0.00000000E+00  0.00000000E+00  0.00000000E+00
  0.00000000E+00  0.00000000E+00  0.00000000E+00
  0.00000000E+00  0.00000000E+00  0.00000000E+00
  0.00000000E+00  0.00000000E+00  0.00000000E+00
  0.00000000E+00  0.00000000E+00  0.00000000E+00
  0.00000000E+00  0.00000000E+00  0.00000000E+00
  0.00000000E+00  0.00000000E+00  0.00000000E+00
  0.00000000E+00  0.00000000E+00  0.00000000E+00
  0.00000000E+00  0.00000000E+00  0.00000000E+00
  0.00000000E+00  0.00000000E+00  0.00000000E+00
  0.00000000E+00  0.00000000E+00  0.00000000E+00
  0.00000000E+00  0.00000000E+00  0.00000000E+00
  0.00000000E+00  0.00000000E+00  0.00000000E+00
  0.00000000E+00  0.00000000E+00  0.00000000E+00
  0.00000000E+00  0.00000000E+00  0.00000000E+00
  0.00000000E+00  0.00000000E+00  0.00000000E+00
  0.00000000E+00  0.00000000E+00  0.00000000E+00
  0.00000000E+00  0.00000000E+00  0.00000000E+00
  0.00000000E+00  0.00000000E+00  0.00000000E+00
  0.00000000E+00  0.00000000E+00  0.00000000E+00
  0.00000000E+00  0.00000000E+00  0.00000000E+00
  0.00000000E+00  0.00000000E+00  0.00000000E+00
  0.00000000E+00  0.00000000E+00  0.00000000E+00
  0.00000000E+00  0.00000000E+00  0.00000000E+00
  0.00000000E+00  0.00000000E+00  0.00000000E+00
  0.00000000E+00  0.00000000E+00  0.00000000E+00
  0.00000000E+00  0.00000000E+00  0.00000000E+00
  0.00000000E+00  0.00000000E+00  0.00000000E+00
  0.00000000E+00  0.00000000E+00  0.00000000E+00
  0.00000000E+00  0.00000000E+00  0.00000000E+00
  0.00000000E+00  0.00000000E+00  0.00000000E+00
  0.00000000E+00  0.00000000E+00  0.00000000E+00
  0.00000000E+00  0.00000000E+00  0.00000000E+00
  0.00000000E+00  0.00000000E+00  0.00000000E+00
  0.00000000E+00  0.00000000E+00  0.00000000E+00
  0.00000000E+00  0.00000000E+00  0.00000000E+00
  0.00000000E+00  0.00000000E+00  0.00000000E+00
  0.00000000E+00  0.00000000E+00  0.00000000E+00
  0.00000000E+00  0.00000000E+00  0.00000000E+00
  0.00000000E+00  0.00000000E+00  0.00000000E+00
  0.00000000E+00  0.00000000E+00  0.00000000E+00
  0.00000000E+00  0.00000000E+00  0.00000000E+00
  0.00000000E+00  0.00000000E+00  0.00000000E+00
  0.00000000E+00  0.00000000E+00  0.00000000E+00
  0.00000000E+00  0.00000000E+00  0.00000000E+00
  0.00000000E+00  0.00000000E+00  0.00000000E+00
  0.00000000E+00  0.00000000E+00  0.00000000E+00
  0.00000000E+00  0.00000000E+00  0.00000000E+00
  0.00000000E+00  0.00000000E+00  0.00000000E+00
  0.00000000E+00  0.00000000E+00  0.00000000E+00
  0.00000000E+00  0.00000000E+00  0.00000000E+00
  0.00000000E+00  0.00000000E+00  0.00000000E+00
  0.00000000E+00  0.00000000E+00  0.00000000E+00
  0.00000000E+00  0.00000000E+00  0.00000000E+00
  0.00000000E+00  0.00000000E+00  0.00000000E+00
  0.00000000E+00  0.00000000E+00  0.00000000E+00
  0.00000000E+00  0.00000000E+00  0.00000000E+00
  0.00000000E+00  0.00000000E+00  0.00000000E+00
  0.00000000E+00  0.00000000E+00  0.00000000E+00
  0.00000000E+00  0.00000000E+00  0.00000000E+00
  0.00000000E+00  0.00000000E+00  0.00000000E+00
  0.00000000E+00  0.00000000E+00  0.00000000E+00
  0.00000000E+00  0.00000000E+00  0.00000000E+00
  0.00000000E+00  0.00000000E+00  0.00000000E+00
  0.00000000E+00  0.00000000E+00  0.00000000E+00
  0.00000000E+00  0.00000000E+00  0.00000000E+00
  0.00000000E+00  0.00000000E+00  0.00000000E+00
  0.00000000E+00  0.00000000E+00  0.00000000E+00
  0.00000000E+00  0.00000000E+00  0.00000000E+00
  0.00000000E+00  0.00000000E+00  0.00000000E+00
  0.00000000E+00  0.00000000E+00  0.00000000E+00
  0.00000000E+00  0.00000000E+00  0.00000000E+00
  0.00000000E+00  0.00000000E+00  0.00000000E+00
  0.00000000E+00  0.00000000E+00  0.00000000E+00
  0.00000000E+00  0.00000000E+00  0.00000000E+00
  0.00000000E+00  0.00000000E+00  0.00000000E+00
  0.00000000E+00  0.00000000E+00  0.00000000E+00
  0.00000000E+00  0.00000000E+00  0.00000000E+00
  0.00000000E+00  0.00000000E+00  0.00000000E+00
  0.00000000E+00  0.00000000E+00  0.00000000E+00
  0.00000000E+00  0.00000000E+00  0.00000000E+00
  0.00000000E+00  0.00000000E+00  0.00000000E+00
  0.00000000E+00  0.00000000E+00  0.00000000E+00
  0.00000000E+00  0.00000000E+00  0.00000000E+00
  0.00000000E+00  0.00000000E+00  0.00000000E+00
  0.00000000E+00  0.00000000E+00  0.00000000E+00
  0.00000000E+00  0.00000000E+00  0.00000000E+00
  0.00000000E+00  0.00000000E+00  0.00000000E+00
  0.00000000E+00  0.00000000E+00  0.00000000E+00
  0.00000000E+00  0.00000000E+00  0.00000000E+00
  0.00000000E+00  0.00000000E+00  0.00000000E+00
  0.00000000E+00  0.00000000E+00  0.00000000E+00
  0.00000000E+00  0.00000000E+00  0.00000000E+00
  0.00000000E+00  0.00000000E+00  0.00000000E+00
  0.00000000E+00  0.00000000E+00  0.00000000E+00
  0.00000000E+00  0.00000000E+00  0.00000000E+00
  0.00000000E+00  0.00000000E+00  0.00000000E+00
  0.00000000E+00  0.00000000E+00  0.00000000E+00
  0.00000000E+00  0.00000000E+00  0.00000000E+00
  0.00000000E+00  0.00000000E+00  0.00000000E+00
  0.00000000E+00  0.00000000E+00  0.00000000E+00
  0.00000000E+00  0.00000000E+00  0.00000000E+00
  0.00000000E+00  0.00000000E+00  0.00000000E+00
  0.00000000E+00  0.00000000E+00  0.00000000E+00
  0.00000000E+00  0.00000000E+00  0.00000000E+00
  0.00000000E+00  0.00000000E+00  0.00000000E+00
  0.00000000E+00  0.00000000E+00  0.00000000E+00
  0.00000000E+00  0.00000000E+00  0.00000000E+00
  0.00000000E+00  0.00000000E+00  0.00000000E+00
  0.00000000E+00  0.00000000E+00  0.00000000E+00
  0.00000000E+00  0.00000000E+00  0.00000000E+00
  0.00000000E+00  0.00000000E+00  0.00000000E+00
  0.00000000E+00  0.00000000E+00  0.00000000E+00
  0.00000000E+00  0.00000000E+00  0.00000000E+00
  0.00000000E+00  0.00000000E+00  0.00000000E+00
  0.00000000E+00  0.00000000E+00  0.00000000E+00
  0.00000000E+00  0.00000000E+00  0.00000000E+00
  0.00000000E+00  0.00000000E+00  0.00000000E+00
  0.00000000E+00  0.00000000E+00  0.00000000E+00
  0.00000000E+00  0.00000000E+00  0.00000000E+00
  0.00000000E+00  0.00000000E+00  0.00000000E+00
  0.00000000E+00  0.00000000E+00  0.00000000E+00
  0.00000000E+00  0.00000000E+00  0.00000000E+00
  0.00000000E+00  0.00000000E+00  0.00000000E+00
  0.00000000E+00  0.00000000E+00  0.00000000E+00
  0.00000000E+00  0.00000000E+00  0.00000000E+00
  0.00000000E+00  0.00000000E+00  0.00000000E+00
  0.00000000E+00  0.00000000E+00  0.00000000E+00
  0.00000000E+00  0.00000000E+00  0.00000000E+00
  0.00000000E+00  0.00000000E+00  0.00000000E+00
  0.00000000E+00  0.00000000E+00  0.00000000E+00
  0.00000000E+00  0.00000000E+00  0.00000000E+00
  0.00000000E+00  0.00000000E+00  0.00000000E+00
  0.00000000E+00  0.00000000E+00  0.00000000E+00
  0.00000000E+00  0.00000000E+00  0.00000000E+00
  0.00000000E+00  0.00000000E+00  0.00000000E+00
  0.00000000E+00  0.00000000E+00  0.00000000E+00
  0.00000000E+00  0.00000000E+00  0.00000000E+00
  0.00000000E+00  0.00000000E+00  0.00000000E+00
  0.00000000E+00  0.00000000E+00  0.00000000E+00
  0.00000000E+00  0.00000000E+00  0.00000000E+00
  0.00000000E+00  0.00000000E+00  0.00000000E+00
  0.00000000E+00  0.00000000E+00  0.00000000E+00
  0.00000000E+00  0.00000000E+00  0.00000000E+00
  0.00000000E+00  0.00000000E+00  0.00000000E+00
  0.00000000E+00  0.00000000E+00  0.00000000E+00
  0.00000000E+00  0.00000000E+00  0.00000000E+00
  0.00000000E+00  0.00000000E+00  0.00000000E+00
  0.00000000E+00  0.00000000E+00  0.00000000E+00
  0.00000000E+00  0.00000000E+00  0.00000000E+00
  0.00000000E+00  0.00000000E+00  0.00000000E+00
  0.00000000E+00  0.00000000E+00  0.00000000E+00
  0.00000000E+00  0.00000000E+00  0.00000000E+00
  0.00000000E+00  0.00000000E+00  0.00000000E+00
  0.00000000E+00  0.00000000E+00  0.00000000E+00
  0.00000000E+00  0.00000000E+00  0.00000000E+00
  0.00000000E+00  0.00000000E+00  0.00000000E+00
  0.00000000E+00  0.00000000E+00  0.00000000E+00
  0.00000000E+00  0.00000000E+00  0.00000000E+00
  0.00000000E+00  0.00000000E+00  0.00000000E+00
  0.00000000E+00  0.00000000E+00  0.00000000E+00
  0.00000000E+00  0.00000000E+00  0.00000000E+00
  0.00000000E+00  0.00000000E+00  0.00000000E+00
  0.00000000E+00  0.00000000E+00  0.00000000E+00
  0.00000000E+00  0.00000000E+00  0.00000000E+00
  0.00000000E+00  0.00000000E+00  0.00000000E+00
  0.00000000E+00  0.00000000E+00  0.00000000E+00
  0.00000000E+00  0.00000000E+00  0.00000000E+00
  0.00000000E+00  0.00000000E+00  0.00000000E+00
  0.00000000E+00  0.00000000E+00  0.00000000E+00
  0.00000000E+00  0.00000000E+00  0.00000000E+00
  0.00000000E+00  0.00000000E+00  0.00000000E+00
  0.00000000E+00  0.00000000E+00  0.00000000E+00
  0.00000000E+00  0.00000000E+00  0.00000000E+00
  0.00000000E+00  0.00000000E+00  0.00000000E+00
  0.00000000E+00  0.00000000E+00  0.00000000E+00
  0.00000000E+00  0.00000000E+00  0.00000000E+00
  0.00000000E+00  0.00000000E+00  0.00000000E+00
  0.00000000E+00  0.00000000E+00  0.00000000E+00
  0.00000000E+00  0.00000000E+00  0.00000000E+00
  0.00000000E+00  0.00000000E+00  0.00000000E+00
  0.00000000E+00  0.00000000E+00  0.00000000E+00
  0.00000000E+00  0.00000000E+00  0.00000000E+00
  0.00000000E+00  0.00000000E+00  0.00000000E+00
  0.00000000E+00  0.00000000E+00  0.00000000E+00
  0.00000000E+00  0.00000000E+00  0.00000000E+00
  0.00000000E+00  0.00000000E+00  0.00000000E+00
  0.00000000E+00  0.00000000E+00  0.00000000E+00
  0.00000000E+00  0.00000000E+00  0.00000000E+00
  0.00000000E+00  0.00000000E+00  0.00000000E+00
  0.00000000E+00  0.00000000E+00  0.00000000E+00
  0.00000000E+00  0.00000000E+00  0.00000000E+00
  0.00000000E+00  0.00000000E+00  0.00000000E+00
  0.00000000E+00  0.00000000E+00  0.00000000E+00
  0.00000000E+00  0.00000000E+00  0.00000000E+00
  0.00000000E+00  0.00000000E+00  0.00000000E+00
  0.00000000E+00  0.00000000E+00  0.00000000E+00
  0.00000000E+00  0.00000000E+00  0.00000000E+00
  0.00000000E+00  0.00000000E+00  0.00000000E+00
  0.00000000E+00  0.00000000E+00  0.00000000E+00
  0.00000000E+00  0.00000000E+00  0.00000000E+00
  0.00000000E+00  0.00000000E+00  0.00000000E+00
  0.00000000E+00  0.00000000E+00  0.00000000E+00
  0.00000000E+00  0.00000000E+00  0.00000000E+00
  0.00000000E+00  0.00000000E+00  0.00000000E+00
  0.00000000E+00  0.00000000E+00  0.00000000E+00
  0.00000000E+00  0.00000000E+00  0.00000000E+00
  0.00000000E+00  0.00000000E+00  0.00000000E+00
  0.00000000E+00  0.00000000E+00  0.00000000E+00
  0.00000000E+00  0.00000000E+00  0.00000000E+00
  0.00000000E+00  0.00000000E+00  0.00000000E+00
  0.00000000E+00  0.00000000E+00  0.00000000E+00
  0.00000000E+00  0.00000000E+00  0.00000000E+00
  0.00000000E+00  0.00000000E+00  0.00000000E+00
  0.00000000E+00  0.00000000E+00  0.00000000E+00
  0.00000000E+00  0.00000000E+00  0.00000000E+00
  0.00000000E+00  0.00000000E+00  0.00000000E+00
  0.00000000E+00  0.00000000E+00  0.00000000E+00
  0.00000000E+00  0.00000000E+00  0.00000000E+00
  0.00000000E+00  0.00000000E+00  0.00000000E+00
  0.00000000E+00  0.00000000E+00  0.00000000E+00
  0.00000000E+00  0.00000000E+00  0.00000000E+00
  0.00000000E+00  0.00000000E+00  0.00000000E+00
  0.00000000E+00  0.00000000E+00  0.00000000E+00
  0.00000000E+00  0.00000000E+00  0.00000000E+00
  0.00000000E+00  0.00000000E+00  0.00000000E+00
  0.00000000E+00  0.00000000E+00  0.00000000E+00
