 C  N  V                                
   1.00000000000000     
    12.4784735457169376    0.0000000000000000    0.0000000000000000
    -0.0000000000000004   12.7901003217726092    0.0000000000000000
     0.0000000000000003    0.0000000000000000   19.8713392819153718
   C    N    V 
    56     2     1
Direct
  0.0519608293968850  0.0473131794892927  0.1591465180884819
  0.1520607502302602  0.1018692802160691  0.1592563828336151
  0.1511330815388008  0.2129741092381047  0.1588968795591239
  0.0513672450639578  0.2688158447140612  0.1587476277451515
  0.2527360958823718  0.0470874576634039  0.1597530200851141
  0.3525503177503133  0.1028839828779207  0.1602502052097895
  0.3513914396922922  0.2148951610142579  0.1598837906251157
  0.2502759321752630  0.2680590713318887  0.1588169445341320
  0.4526401559528648  0.0473352471243888  0.1604107096704344
  0.5511144161154687  0.1059127462359311  0.1608960379935152
  0.5504834285773647  0.2186720227258871  0.1613692939668902
  0.4495641601073186  0.2742798205018093  0.1591639345103207
  0.6509327357271217  0.0487591380736252  0.1610289024236134
  0.7509575353467297  0.1044043865839703  0.1609340175462688
  0.7511701188707288  0.2162280720407431  0.1624730559260041
  0.6513938312275177  0.2749461882626166  0.1641542069007859
  0.8512063197359350  0.0482815546733963  0.1597178346827301
  0.9515238805295850  0.1028938532555742  0.1592959304801303
  0.9515369245368462  0.2141679974863337  0.1594671828211347
  0.8518244150545616  0.2702416078207602  0.1609503896463794
  0.0517975624122233  0.3802810581493152  0.1584087130038487
  0.1503999195523580  0.4358193377669523  0.1582115350729576
  0.1507878666062592  0.5471423648030342  0.1583799208392568
  0.0523312697788005  0.6034071762541238  0.1584525061486587
  0.2490195189245461  0.3791973313536537  0.1580740365352189
  0.3472275879199165  0.4333352728676970  0.1570334218033325
  0.3483382880911350  0.5456563264357864  0.1589880895162254
  0.2500328958077916  0.6019033614387306  0.1592323842657271
  0.7556132431752152  0.4380174011501570  0.1625352954001272
  0.7569609678395669  0.5504713254075666  0.1603086985813594
  0.8541245768746052  0.3817121799324189  0.1603186058743104
  0.9533079891518637  0.4364684656053728  0.1585118622633450
  0.9537446134181431  0.5479023743771554  0.1583212278691488
  0.8552518729433050  0.6045773375096134  0.1589761762062943
  0.0528409238895317  0.7148624898496133  0.1588623795047660
  0.1527297951914865  0.7695736131776836  0.1595280780782531
  0.0523130908614251  0.9363977188116986  0.1592069979502180
  0.2523831908766631  0.7134320863031735  0.1602789532378871
  0.3531516333646658  0.7671137177251620  0.1614023707104986
  0.3533222451583083  0.8791226482177659  0.1607272251764546
  0.2531362503483626  0.9353731417701503  0.1599594913669738
  0.4529201810879328  0.7080066005527349  0.1618080903255907
  0.5536773740738806  0.7651703617640628  0.1614859136403765
  0.5530074953245915  0.8779089498677572  0.1610595755771044
  0.4532371363861532  0.9350011059626926  0.1606881038080814
  0.6547925173894257  0.7104894326231961  0.1615144504017425
  0.7529751263287199  0.7692612345184573  0.1612546071458154
  0.7517843827949910  0.8810836632016227  0.1607874107987811
  0.6515774282622382  0.9364525768521996  0.1609417002939939
  0.8540041635297084  0.7156747114316068  0.1596201823623113
  0.9531323564497577  0.7706984007166262  0.1591126176863775
  0.8516677434973335  0.9367036908410344  0.1596909983083902
  0.1527740463837062  0.8808049183058556  0.1595461049541694
  0.9522907710222908  0.8818584036877347  0.1592542582426536
  0.4487557193414307  0.5970748332834648  0.1595919498380289
  0.6555682365051320  0.3856641962684403  0.1647268643391870
  0.4452861516434489  0.3827961441410216  0.1546940526728469
  0.6591143884555714  0.6019604085800392  0.1592300943127035
  0.5569759557044848  0.4921829134731033  0.1260422496069082
 
  0.00000000E+00  0.00000000E+00  0.00000000E+00
  0.00000000E+00  0.00000000E+00  0.00000000E+00
  0.00000000E+00  0.00000000E+00  0.00000000E+00
  0.00000000E+00  0.00000000E+00  0.00000000E+00
  0.00000000E+00  0.00000000E+00  0.00000000E+00
  0.00000000E+00  0.00000000E+00  0.00000000E+00
  0.00000000E+00  0.00000000E+00  0.00000000E+00
  0.00000000E+00  0.00000000E+00  0.00000000E+00
  0.00000000E+00  0.00000000E+00  0.00000000E+00
  0.00000000E+00  0.00000000E+00  0.00000000E+00
  0.00000000E+00  0.00000000E+00  0.00000000E+00
  0.00000000E+00  0.00000000E+00  0.00000000E+00
  0.00000000E+00  0.00000000E+00  0.00000000E+00
  0.00000000E+00  0.00000000E+00  0.00000000E+00
  0.00000000E+00  0.00000000E+00  0.00000000E+00
  0.00000000E+00  0.00000000E+00  0.00000000E+00
  0.00000000E+00  0.00000000E+00  0.00000000E+00
  0.00000000E+00  0.00000000E+00  0.00000000E+00
  0.00000000E+00  0.00000000E+00  0.00000000E+00
  0.00000000E+00  0.00000000E+00  0.00000000E+00
  0.00000000E+00  0.00000000E+00  0.00000000E+00
  0.00000000E+00  0.00000000E+00  0.00000000E+00
  0.00000000E+00  0.00000000E+00  0.00000000E+00
  0.00000000E+00  0.00000000E+00  0.00000000E+00
  0.00000000E+00  0.00000000E+00  0.00000000E+00
  0.00000000E+00  0.00000000E+00  0.00000000E+00
  0.00000000E+00  0.00000000E+00  0.00000000E+00
  0.00000000E+00  0.00000000E+00  0.00000000E+00
  0.00000000E+00  0.00000000E+00  0.00000000E+00
  0.00000000E+00  0.00000000E+00  0.00000000E+00
  0.00000000E+00  0.00000000E+00  0.00000000E+00
  0.00000000E+00  0.00000000E+00  0.00000000E+00
  0.00000000E+00  0.00000000E+00  0.00000000E+00
  0.00000000E+00  0.00000000E+00  0.00000000E+00
  0.00000000E+00  0.00000000E+00  0.00000000E+00
  0.00000000E+00  0.00000000E+00  0.00000000E+00
  0.00000000E+00  0.00000000E+00  0.00000000E+00
  0.00000000E+00  0.00000000E+00  0.00000000E+00
  0.00000000E+00  0.00000000E+00  0.00000000E+00
  0.00000000E+00  0.00000000E+00  0.00000000E+00
  0.00000000E+00  0.00000000E+00  0.00000000E+00
  0.00000000E+00  0.00000000E+00  0.00000000E+00
  0.00000000E+00  0.00000000E+00  0.00000000E+00
  0.00000000E+00  0.00000000E+00  0.00000000E+00
  0.00000000E+00  0.00000000E+00  0.00000000E+00
  0.00000000E+00  0.00000000E+00  0.00000000E+00
  0.00000000E+00  0.00000000E+00  0.00000000E+00
  0.00000000E+00  0.00000000E+00  0.00000000E+00
  0.00000000E+00  0.00000000E+00  0.00000000E+00
  0.00000000E+00  0.00000000E+00  0.00000000E+00
  0.00000000E+00  0.00000000E+00  0.00000000E+00
  0.00000000E+00  0.00000000E+00  0.00000000E+00
  0.00000000E+00  0.00000000E+00  0.00000000E+00
  0.00000000E+00  0.00000000E+00  0.00000000E+00
  0.00000000E+00  0.00000000E+00  0.00000000E+00
  0.00000000E+00  0.00000000E+00  0.00000000E+00
  0.00000000E+00  0.00000000E+00  0.00000000E+00
  0.00000000E+00  0.00000000E+00  0.00000000E+00
  0.00000000E+00  0.00000000E+00  0.00000000E+00
