 C  N Mn                                
   1.00000000000000     
     8.4733258349044309    0.0000000000000001    0.0000000000000000
    -0.0000000000000001    8.4734309733825821    0.0000000000000000
    -0.0000000000000002    0.0000000000000000   19.8713392818999957
   C    N    Mn
    22     2     1
Direct
  0.4999531462311159  0.0849016289490243  0.1542090790254173
  0.3542324289797585  0.1652425871016732  0.1542003318500243
  0.6477709096736142  0.1661891694947611  0.1541692559887509
  0.7952305329717130  0.9171592601159868  0.1541686718662204
  0.7961556318944510  0.0827481174625847  0.1541342692786809
  0.9172307705284434  0.2037434743284964  0.1541482749843034
  0.8339670484067453  0.3522179174729482  0.1541967578190049
  0.2045779229902671  0.0827435281252338  0.1541778018318660
  0.0827843685555886  0.2046620186287600  0.1541547477926896
  0.1654891904465383  0.3541932328014901  0.1541707588747047
  0.0851290213384506  0.4999769054354832  0.1541908894543536
  0.1661677787149783  0.6478096567163606  0.1542142411825257
  0.3521891605516388  0.8339814282442142  0.1542692512738059
  0.2036611960860124  0.9172498160441721  0.1541880672764195
  0.0827086082315687  0.7962050639907539  0.1541561827613363
  0.6456941404366827  0.8344806069021785  0.1542812359291400
  0.8347059061612699  0.6456770983954569  0.1542828443040829
  0.9171855668693041  0.7953350237180212  0.1541756308440712
  0.4999584294992234  0.9149841587602842  0.1542654008331918
  0.9152468148882962  0.5000004612224003  0.1542364028891233
  0.6674253352500426  0.6671874856810895  0.1543974459616058
  0.3327448047030895  0.3324887575092289  0.1542034585306421
  0.6708406317547505  0.3292849564447698  0.1541946613680149
  0.3292277675907341  0.6708755313189873  0.1542904499071867
  0.5000724482459784  0.4999750323780898  0.1543368979936317
 
  0.00000000E+00  0.00000000E+00  0.00000000E+00
  0.00000000E+00  0.00000000E+00  0.00000000E+00
  0.00000000E+00  0.00000000E+00  0.00000000E+00
  0.00000000E+00  0.00000000E+00  0.00000000E+00
  0.00000000E+00  0.00000000E+00  0.00000000E+00
  0.00000000E+00  0.00000000E+00  0.00000000E+00
  0.00000000E+00  0.00000000E+00  0.00000000E+00
  0.00000000E+00  0.00000000E+00  0.00000000E+00
  0.00000000E+00  0.00000000E+00  0.00000000E+00
  0.00000000E+00  0.00000000E+00  0.00000000E+00
  0.00000000E+00  0.00000000E+00  0.00000000E+00
  0.00000000E+00  0.00000000E+00  0.00000000E+00
  0.00000000E+00  0.00000000E+00  0.00000000E+00
  0.00000000E+00  0.00000000E+00  0.00000000E+00
  0.00000000E+00  0.00000000E+00  0.00000000E+00
  0.00000000E+00  0.00000000E+00  0.00000000E+00
  0.00000000E+00  0.00000000E+00  0.00000000E+00
  0.00000000E+00  0.00000000E+00  0.00000000E+00
  0.00000000E+00  0.00000000E+00  0.00000000E+00
  0.00000000E+00  0.00000000E+00  0.00000000E+00
  0.00000000E+00  0.00000000E+00  0.00000000E+00
  0.00000000E+00  0.00000000E+00  0.00000000E+00
  0.00000000E+00  0.00000000E+00  0.00000000E+00
  0.00000000E+00  0.00000000E+00  0.00000000E+00
  0.00000000E+00  0.00000000E+00  0.00000000E+00
