 C  N  H Fe  O                          
   1.00000000000000     
    11.1271924901848873  -19.2711801839273633   -0.1127141789336458
    11.1162157734363323   19.2648532100114416    0.0882811648950610
    -0.0173064749609017    0.0834298172178934   25.7536279428547275
   C    N    H    Fe   O 
   194    12    12     1     8
Direct
  0.9998513272213448  0.0000521528908794  0.0532709626061620
  0.0369233513314529  0.0741746372688898  0.0525110132979239
  0.9998877065564256  0.1112186137354038  0.0523848766987428
  0.0369584663905502  0.1853499643494611  0.0511409729364431
  0.9999182301857267  0.2224312072209144  0.0506911871742423
  0.0368881468801038  0.2964449293119791  0.0487056119866942
  0.9998346413370161  0.3335030444068177  0.0479318826860019
  0.0368089152790779  0.4075117868238632  0.0459603579111737
  0.9997998187287908  0.4445153148193564  0.0463050646813450
  0.0368453997133263  0.5185904567938410  0.0464004093309761
  0.9997945618058451  0.5555787948165588  0.0478486088785205
  0.0367985294332633  0.6295377530221441  0.0495743112868974
  0.9997417124813439  0.6665731539460300  0.0509193311250437
  0.0368015398094574  0.7406493409860605  0.0523918242656955
  0.9997936161072460  0.7776990177770646  0.0530625875412565
  0.0368914689183760  0.8518388901926308  0.0535490919416892
  0.9998585518959447  0.8889112973253775  0.0536245624758365
  0.0369142254218289  0.9629749092567074  0.0533474315303346
  0.1110001601593928  0.0000395568831421  0.0522998877178575
  0.1480351308949125  0.0741470396554960  0.0506343823188401
  0.1110304682897245  0.1112442519611974  0.0509053393857378
  0.1480002338005243  0.1852553823953960  0.0489580226296003
  0.1109849211999253  0.2223569534332368  0.0494029136801674
  0.1479787311173650  0.2964406610508423  0.0473204575788622
  0.1109496403175483  0.3334811687045234  0.0469474990491690
  0.1479234533437458  0.4075352165543478  0.0444263866200774
  0.1108625747905449  0.4445588058249708  0.0442296027182345
  0.1478781611880230  0.5185851328123149  0.0436271482750969
  0.1108305080036610  0.5556199162503792  0.0454576359266567
  0.1478911710453493  0.6296277752133559  0.0472661333188089
  0.1108959169937038  0.6666040919902195  0.0495926160824656
  0.1479647338936899  0.7406961789760684  0.0512793155012813
  0.1109428358188284  0.7777658742627394  0.0524826072260290
  0.1479757583783135  0.8518131025111010  0.0529374094855501
  0.1109480241402583  0.8889117673026709  0.0531785100049459
  0.1479964403793950  0.9629894789847002  0.0522829664650406
  0.2220735778299237  0.0000635778507414  0.0511276792090805
  0.2590495822729868  0.0740599126850310  0.0491125768284177
  0.2220164172795034  0.1111592989104402  0.0484891949696337
  0.2590066916132074  0.1852177152363470  0.0463245588820697
  0.2220052115566187  0.2222707166813473  0.0464883170012406
  0.2589849029656062  0.2963397409602234  0.0449581701429109
  0.2220184137831829  0.3334555294839434  0.0452236259062230
  0.2589495267610236  0.4074419258269666  0.0434634809307105
  0.2219374275636080  0.4445364123879920  0.0429411478396549
  0.2590059194382274  0.5186586280859333  0.0421546453700189
  0.2219922680968208  0.5556726540154210  0.0428331659856915
  0.2590868802706370  0.6297561905368800  0.0445786607931027
  0.2220338465799127  0.6667175428449424  0.0470980807967148
  0.2590541327888961  0.7406785993365346  0.0496960827783435
  0.2220147727300673  0.7777483837778065  0.0513554340496982
  0.2590733169158896  0.8518472283323072  0.0524199779228441
  0.2220707275881432  0.8889124035594151  0.0526599407853464
  0.2591186052953339  0.9630314888262096  0.0519501287237113
  0.3331315936132100  0.0000663257081379  0.0517157360270319
  0.3701423698965417  0.0741285733360797  0.0501429922468017
  0.3331233247824170  0.1111413729175698  0.0483515555845936
  0.3701242298816542  0.1852059367547716  0.0461725720612374
  0.3330538017451851  0.2222589279684583  0.0449523955081278
  0.3700724148725836  0.2962779188955608  0.0437683277215505
  0.3330026931386704  0.3333489203367341  0.0438277271576120
  0.3700195814867303  0.4074377789119280  0.0434551252700416
  0.3330514870375600  0.4445008308331502  0.0430224029325126
  0.3701522118595708  0.5186520101075974  0.0427385626840487
  0.3331127149539951  0.5557130088830362  0.0424538799874325
  0.3701874183850777  0.6297116772658491  0.0439415736192368
  0.3331184537210986  0.6667341042934937  0.0453746322265977
  0.3701806541996120  0.7407239996228117  0.0484445752705569
  0.3331736315906260  0.7777404132550468  0.0502681879420825
  0.3702453188258084  0.8518528422473930  0.0520467316128735
  0.3332021050967114  0.8889333646336112  0.0525932310914869
  0.3701913796622039  0.9629875173187584  0.0525657924223868
  0.4442939306830784  0.0000408731806704  0.0525673133468041
  0.4813256368462182  0.0741692587865669  0.0514654932506619
  0.4442452291344192  0.1112170523257139  0.0499676329989059
  0.4812280270655577  0.1852252942484645  0.0476281891856488
  0.4441594439292081  0.2222664031471216  0.0457171253987393
  0.4812185327182051  0.2963224501533057  0.0435692069588338
  0.4441826396367104  0.3333282433942289  0.0430747070209189
  0.4812916802770347  0.4074154492383776  0.0428855433062383
  0.4442045939148307  0.4444874211686884  0.0435191139476994
  0.4812870375698157  0.5185966342879895  0.0436435874073218
  0.4441895318210100  0.5556685746525909  0.0433926306347375
  0.4812790223735577  0.6297231576060628  0.0439598142316653
  0.4442493267356425  0.6666989756939392  0.0449797435241117
  0.4813560795940073  0.7407716003105671  0.0472492721781374
  0.4443382967542762  0.7777892578625251  0.0492231536291097
  0.4813647754467357  0.8518082313374524  0.0511707181001667
  0.4442989548045723  0.8888737032213577  0.0523258584821937
  0.4813354272968746  0.9629891598684692  0.0528012339120881
  0.5554575765033360  0.0000556103251337  0.0525641659356153
  0.5924379659277174  0.0741089463487923  0.0519591465256835
  0.5553669320116342  0.1111984332696428  0.0510317098443362
  0.5923841414199421  0.1852821587789583  0.0488036533235354
  0.5553407898278327  0.2222983148233135  0.0467564558144310
  0.5923682313535646  0.2963407319260487  0.0437759926995618
  0.5552927880316556  0.3333683183451412  0.0426358031540234
  0.5923586661537337  0.4073990793429277  0.0418276052574716
  0.5553254174774176  0.4444671585619616  0.0423414111512441
  0.5924096395397858  0.5185792228904762  0.0430475489992714
  0.5554467398815636  0.5556253303393959  0.0435582541805891
  0.5924785546477485  0.6297341537528983  0.0439977881379617
  0.5554114490844650  0.6667652019088964  0.0443107261386307
  0.5924499439595237  0.7407809941575746  0.0454152803328723
  0.5554043672067547  0.7778227200800116  0.0472089125633949
  0.5924421862204343  0.8518774744400411  0.0490152124620775
  0.5554496645262180  0.8888787437787607  0.0509706021956959
  0.5924991279364814  0.9629807944734119  0.0519595397812901
  0.6665129973549124  0.0000126684709160  0.0516012967095603
  0.7035438956477047  0.0741161550766083  0.0518221372236979
  0.6665314845265096  0.1111807448259903  0.0514959484302375
  0.7035704849904180  0.1853018891087089  0.0500047527663340
  0.6665145819703047  0.2223647003474933  0.0481781575423240
  0.7034941843236174  0.2963457162837699  0.0455699841942831
  0.6663972221388833  0.3333505528764984  0.0432340550713840
  0.7034703188374679  0.4074418144378603  0.0424107698167314
  0.6664535312058507  0.4444664288975771  0.0421384438324903
  0.7035328659454503  0.5185783614038102  0.0436871572251655
  0.6665316998786749  0.5556479285145933  0.0439563049959888
  0.7034948369089038  0.6296253578361891  0.0456799763821606
  0.6665084086441080  0.6667464918753174  0.0449612666075817
  0.7035245770846565  0.7408006680803892  0.0460901408840093
  0.6665100790399979  0.7778305955029621  0.0460220627358383
  0.7035679637695218  0.8519266106346517  0.0478614448299878
  0.6665481719450840  0.8889929504493936  0.0488742625855534
  0.7035546979807077  0.9629779181602668  0.0505140843523593
  0.7776194409790192  0.0000444263275824  0.0511054093728485
  0.8146735633785575  0.0741282868961038  0.0518361545262268
  0.7776570710277787  0.1112217370311035  0.0516593841766975
  0.8146677582024674  0.1852646406034925  0.0509166151361318
  0.7776152119143661  0.2223514580973925  0.0497315079139034
  0.8146396172713412  0.2964254572241360  0.0480376781981177
  0.7776081263219066  0.3334242646436069  0.0459432133181754
  0.8146721997248156  0.4074886686272020  0.0448842359402346
  0.7776076614908776  0.4445285602881482  0.0437800459222385
  0.8146267879706311  0.5185302717501569  0.0454619612206249
  0.7775406892980340  0.5555458383786659  0.0458226469109791
  0.8145423542871473  0.6295650164861698  0.0484737502846281
  0.7775247780216005  0.6666163165882770  0.0481878327856919
  0.8145807807370304  0.7407308319313396  0.0498237263691620
  0.7775883020450962  0.7778294959465338  0.0485650409829150
  0.8145914846558820  0.8518396061589382  0.0502129086808732
  0.7775897316613025  0.8889546369890229  0.0496011003294959
  0.8146182113957999  0.9630092226485961  0.0510862571793429
  0.8887162948786111  0.0000740868478525  0.0524034230175628
  0.9257715422874732  0.0741287855471556  0.0525924187003281
  0.8887288103139278  0.1112104555979592  0.0521311234937247
  0.9257898978359319  0.1853185401000710  0.0514140257429354
  0.8887744922314832  0.2223701319828895  0.0506029094052181
  0.9258119233108807  0.2964660170213125  0.0490615841360635
  0.8887499729201636  0.3335032944939574  0.0480075664652924
  0.9257419433208769  0.4074829667846504  0.0468703587165696
  0.8886732148437014  0.4445080226519086  0.0461331816480416
  0.9257059444133353  0.5185440253313713  0.0471055839535737
  0.8886748530863233  0.5555367954740956  0.0474662445677322
  0.9256917664816828  0.6295444790381680  0.0498411162535758
  0.8886522456540500  0.6665903686781862  0.0504999639479116
  0.9256689679376413  0.7406106247285311  0.0522367478940749
  0.8886223735125863  0.7777104395133629  0.0520153539164110
  0.9257126159728961  0.8518246502254300  0.0529619485041276
  0.8886822578440765  0.8888741697636989  0.0523163006511038
  0.9257694671494950  0.9630133555268129  0.0529575253879858
  0.2665737530947107  0.1367805386175298  0.1744419042273717
  0.3363701683402228  0.1892209176574253  0.1718219244389078
  0.3492568124838529  0.2574349362519391  0.1707835660672158
  0.2947124050952075  0.2728190272178050  0.1713550729831597
  0.2249849278302280  0.2193782390284837  0.1733687590984408
  0.2111359732493747  0.1508206124419195  0.1753420574188433
  0.3273614191449196  0.3481633566020736  0.1694810745182842
  0.4139814650120433  0.3236891205945839  0.1688555504011871
  0.3219929551393377  0.4497729855064225  0.1687942303103991
  0.4007670533961657  0.5640024848952727  0.1692412451837059
  0.2831670897262875  0.4867546010554420  0.1690039882096057
  0.3328966183409546  0.5585603208484428  0.1692423378973009
  0.3126198730739830  0.6090924650789781  0.1687042751598849
  0.2417285782489800  0.5865315115301789  0.1686291936135057
  0.1928191308119057  0.5145703492144617  0.1687735431063596
  0.2120211372698615  0.4633325582063704  0.1685279274075013
  0.5341829352705882  0.3885295822554632  0.1681208655457833
  0.6128846517038745  0.5026083323850382  0.1695940143242821
  0.6221972215826037  0.3433399221200770  0.1669106047879250
  0.6930959240773978  0.3658706005052580  0.1673527564987517
  0.7419838196615142  0.4377511578024486  0.1694226599570266
  0.7228251786196311  0.4890172401623540  0.1704492921610689
  0.6517167221625005  0.4656272966511148  0.1698371885784786
  0.6019756347050276  0.3938511738372581  0.1684784668824809
  0.6074277174213566  0.6041220329931647  0.1702931546172869
  0.5210919123132900  0.6290647366505315  0.1704593819811825
  0.6403790307526874  0.6793738642922178  0.1716298754922282
  0.7103952915970568  0.7321221480976949  0.1716574547068914
  0.7252436691261003  0.8009750245730329  0.1721801539972789
  0.6703429688574883  0.8158065113018563  0.1726980622618804
  0.6001145009660189  0.7639136889971365  0.1724574788775829
  0.5861641736390186  0.6952967106977329  0.1718864512315072
  0.3996635860169522  0.3780282826011630  0.1683502208955212
  0.2911790144591210  0.3809990248414016  0.1691447913551734
  0.3931823010739832  0.4976236528242019  0.1687163801214219
  0.4754941935800864  0.3277882361169202  0.1681737119835670
  0.5417021160464917  0.4548479121766677  0.1685563965866158
  0.6436438198134498  0.5713172249678603  0.1701268412777106
  0.5351866440197820  0.5745299626433056  0.1695693398791295
  0.4594598542466572  0.6247975062968661  0.1700366903557504
  0.1181833132020562  0.4925533515335856  0.1682633410636473
  0.6877108733003238  0.8891580845710108  0.1719923993433319
  0.8166429342711986  0.4598109062050087  0.1693540714963230
  0.2503578023995133  0.0637600293122515  0.1755452609044207
  0.3778253766991929  0.1767913333828745  0.1702910699035675
  0.1829816853896259  0.2312747910261465  0.1729133873471893
  0.1582274444205915  0.1071858825743755  0.1767565424262032
  0.3513611417670316  0.6642332503786347  0.1675384332347948
  0.2226613372869682  0.6230863070904844  0.1674805034306955
  0.1729103949692988  0.4084619353283554  0.1674521458759322
  0.5834513075233244  0.2883104509429674  0.1642971516069345
  0.7121407684700946  0.3294032748182636  0.1650132428523561
  0.7619412867024079  0.5439006814352658  0.1710450924248511
  0.7517178327563619  0.7193134933954598  0.1701671364827533
  0.7784117085396962  0.8441396100038616  0.1711112948344878
  0.5592399037666484  0.7772459353931578  0.1718039206235804
  0.4674234991363889  0.4762880784770318  0.1676403591605659
  0.1018142584827413  0.5387555231894130  0.1695750032720359
  0.0753933698471401  0.4288590274755181  0.1660909112547181
  0.6388710709526927  0.9017720843690277  0.1734331254950277
  0.7504355252249503  0.9349574252442812  0.1692767447227596
  0.8594388736763198  0.5234934322311747  0.1714878117827502
  0.8330125508339056  0.4136830566837685  0.1666209442482269
  0.1882511624304195  0.0173926907524185  0.1808265441752078
  0.2995176525754103  0.0520620233427333  0.1706303818687048
 
  0.00000000E+00  0.00000000E+00  0.00000000E+00
  0.00000000E+00  0.00000000E+00  0.00000000E+00
  0.00000000E+00  0.00000000E+00  0.00000000E+00
  0.00000000E+00  0.00000000E+00  0.00000000E+00
  0.00000000E+00  0.00000000E+00  0.00000000E+00
  0.00000000E+00  0.00000000E+00  0.00000000E+00
  0.00000000E+00  0.00000000E+00  0.00000000E+00
  0.00000000E+00  0.00000000E+00  0.00000000E+00
  0.00000000E+00  0.00000000E+00  0.00000000E+00
  0.00000000E+00  0.00000000E+00  0.00000000E+00
  0.00000000E+00  0.00000000E+00  0.00000000E+00
  0.00000000E+00  0.00000000E+00  0.00000000E+00
  0.00000000E+00  0.00000000E+00  0.00000000E+00
  0.00000000E+00  0.00000000E+00  0.00000000E+00
  0.00000000E+00  0.00000000E+00  0.00000000E+00
  0.00000000E+00  0.00000000E+00  0.00000000E+00
  0.00000000E+00  0.00000000E+00  0.00000000E+00
  0.00000000E+00  0.00000000E+00  0.00000000E+00
  0.00000000E+00  0.00000000E+00  0.00000000E+00
  0.00000000E+00  0.00000000E+00  0.00000000E+00
  0.00000000E+00  0.00000000E+00  0.00000000E+00
  0.00000000E+00  0.00000000E+00  0.00000000E+00
  0.00000000E+00  0.00000000E+00  0.00000000E+00
  0.00000000E+00  0.00000000E+00  0.00000000E+00
  0.00000000E+00  0.00000000E+00  0.00000000E+00
  0.00000000E+00  0.00000000E+00  0.00000000E+00
  0.00000000E+00  0.00000000E+00  0.00000000E+00
  0.00000000E+00  0.00000000E+00  0.00000000E+00
  0.00000000E+00  0.00000000E+00  0.00000000E+00
  0.00000000E+00  0.00000000E+00  0.00000000E+00
  0.00000000E+00  0.00000000E+00  0.00000000E+00
  0.00000000E+00  0.00000000E+00  0.00000000E+00
  0.00000000E+00  0.00000000E+00  0.00000000E+00
  0.00000000E+00  0.00000000E+00  0.00000000E+00
  0.00000000E+00  0.00000000E+00  0.00000000E+00
  0.00000000E+00  0.00000000E+00  0.00000000E+00
  0.00000000E+00  0.00000000E+00  0.00000000E+00
  0.00000000E+00  0.00000000E+00  0.00000000E+00
  0.00000000E+00  0.00000000E+00  0.00000000E+00
  0.00000000E+00  0.00000000E+00  0.00000000E+00
  0.00000000E+00  0.00000000E+00  0.00000000E+00
  0.00000000E+00  0.00000000E+00  0.00000000E+00
  0.00000000E+00  0.00000000E+00  0.00000000E+00
  0.00000000E+00  0.00000000E+00  0.00000000E+00
  0.00000000E+00  0.00000000E+00  0.00000000E+00
  0.00000000E+00  0.00000000E+00  0.00000000E+00
  0.00000000E+00  0.00000000E+00  0.00000000E+00
  0.00000000E+00  0.00000000E+00  0.00000000E+00
  0.00000000E+00  0.00000000E+00  0.00000000E+00
  0.00000000E+00  0.00000000E+00  0.00000000E+00
  0.00000000E+00  0.00000000E+00  0.00000000E+00
  0.00000000E+00  0.00000000E+00  0.00000000E+00
  0.00000000E+00  0.00000000E+00  0.00000000E+00
  0.00000000E+00  0.00000000E+00  0.00000000E+00
  0.00000000E+00  0.00000000E+00  0.00000000E+00
  0.00000000E+00  0.00000000E+00  0.00000000E+00
  0.00000000E+00  0.00000000E+00  0.00000000E+00
  0.00000000E+00  0.00000000E+00  0.00000000E+00
  0.00000000E+00  0.00000000E+00  0.00000000E+00
  0.00000000E+00  0.00000000E+00  0.00000000E+00
  0.00000000E+00  0.00000000E+00  0.00000000E+00
  0.00000000E+00  0.00000000E+00  0.00000000E+00
  0.00000000E+00  0.00000000E+00  0.00000000E+00
  0.00000000E+00  0.00000000E+00  0.00000000E+00
  0.00000000E+00  0.00000000E+00  0.00000000E+00
  0.00000000E+00  0.00000000E+00  0.00000000E+00
  0.00000000E+00  0.00000000E+00  0.00000000E+00
  0.00000000E+00  0.00000000E+00  0.00000000E+00
  0.00000000E+00  0.00000000E+00  0.00000000E+00
  0.00000000E+00  0.00000000E+00  0.00000000E+00
  0.00000000E+00  0.00000000E+00  0.00000000E+00
  0.00000000E+00  0.00000000E+00  0.00000000E+00
  0.00000000E+00  0.00000000E+00  0.00000000E+00
  0.00000000E+00  0.00000000E+00  0.00000000E+00
  0.00000000E+00  0.00000000E+00  0.00000000E+00
  0.00000000E+00  0.00000000E+00  0.00000000E+00
  0.00000000E+00  0.00000000E+00  0.00000000E+00
  0.00000000E+00  0.00000000E+00  0.00000000E+00
  0.00000000E+00  0.00000000E+00  0.00000000E+00
  0.00000000E+00  0.00000000E+00  0.00000000E+00
  0.00000000E+00  0.00000000E+00  0.00000000E+00
  0.00000000E+00  0.00000000E+00  0.00000000E+00
  0.00000000E+00  0.00000000E+00  0.00000000E+00
  0.00000000E+00  0.00000000E+00  0.00000000E+00
  0.00000000E+00  0.00000000E+00  0.00000000E+00
  0.00000000E+00  0.00000000E+00  0.00000000E+00
  0.00000000E+00  0.00000000E+00  0.00000000E+00
  0.00000000E+00  0.00000000E+00  0.00000000E+00
  0.00000000E+00  0.00000000E+00  0.00000000E+00
  0.00000000E+00  0.00000000E+00  0.00000000E+00
  0.00000000E+00  0.00000000E+00  0.00000000E+00
  0.00000000E+00  0.00000000E+00  0.00000000E+00
  0.00000000E+00  0.00000000E+00  0.00000000E+00
  0.00000000E+00  0.00000000E+00  0.00000000E+00
  0.00000000E+00  0.00000000E+00  0.00000000E+00
  0.00000000E+00  0.00000000E+00  0.00000000E+00
  0.00000000E+00  0.00000000E+00  0.00000000E+00
  0.00000000E+00  0.00000000E+00  0.00000000E+00
  0.00000000E+00  0.00000000E+00  0.00000000E+00
  0.00000000E+00  0.00000000E+00  0.00000000E+00
  0.00000000E+00  0.00000000E+00  0.00000000E+00
  0.00000000E+00  0.00000000E+00  0.00000000E+00
  0.00000000E+00  0.00000000E+00  0.00000000E+00
  0.00000000E+00  0.00000000E+00  0.00000000E+00
  0.00000000E+00  0.00000000E+00  0.00000000E+00
  0.00000000E+00  0.00000000E+00  0.00000000E+00
  0.00000000E+00  0.00000000E+00  0.00000000E+00
  0.00000000E+00  0.00000000E+00  0.00000000E+00
  0.00000000E+00  0.00000000E+00  0.00000000E+00
  0.00000000E+00  0.00000000E+00  0.00000000E+00
  0.00000000E+00  0.00000000E+00  0.00000000E+00
  0.00000000E+00  0.00000000E+00  0.00000000E+00
  0.00000000E+00  0.00000000E+00  0.00000000E+00
  0.00000000E+00  0.00000000E+00  0.00000000E+00
  0.00000000E+00  0.00000000E+00  0.00000000E+00
  0.00000000E+00  0.00000000E+00  0.00000000E+00
  0.00000000E+00  0.00000000E+00  0.00000000E+00
  0.00000000E+00  0.00000000E+00  0.00000000E+00
  0.00000000E+00  0.00000000E+00  0.00000000E+00
  0.00000000E+00  0.00000000E+00  0.00000000E+00
  0.00000000E+00  0.00000000E+00  0.00000000E+00
  0.00000000E+00  0.00000000E+00  0.00000000E+00
  0.00000000E+00  0.00000000E+00  0.00000000E+00
  0.00000000E+00  0.00000000E+00  0.00000000E+00
  0.00000000E+00  0.00000000E+00  0.00000000E+00
  0.00000000E+00  0.00000000E+00  0.00000000E+00
  0.00000000E+00  0.00000000E+00  0.00000000E+00
  0.00000000E+00  0.00000000E+00  0.00000000E+00
  0.00000000E+00  0.00000000E+00  0.00000000E+00
  0.00000000E+00  0.00000000E+00  0.00000000E+00
  0.00000000E+00  0.00000000E+00  0.00000000E+00
  0.00000000E+00  0.00000000E+00  0.00000000E+00
  0.00000000E+00  0.00000000E+00  0.00000000E+00
  0.00000000E+00  0.00000000E+00  0.00000000E+00
  0.00000000E+00  0.00000000E+00  0.00000000E+00
  0.00000000E+00  0.00000000E+00  0.00000000E+00
  0.00000000E+00  0.00000000E+00  0.00000000E+00
  0.00000000E+00  0.00000000E+00  0.00000000E+00
  0.00000000E+00  0.00000000E+00  0.00000000E+00
  0.00000000E+00  0.00000000E+00  0.00000000E+00
  0.00000000E+00  0.00000000E+00  0.00000000E+00
  0.00000000E+00  0.00000000E+00  0.00000000E+00
  0.00000000E+00  0.00000000E+00  0.00000000E+00
  0.00000000E+00  0.00000000E+00  0.00000000E+00
  0.00000000E+00  0.00000000E+00  0.00000000E+00
  0.00000000E+00  0.00000000E+00  0.00000000E+00
  0.00000000E+00  0.00000000E+00  0.00000000E+00
  0.00000000E+00  0.00000000E+00  0.00000000E+00
  0.00000000E+00  0.00000000E+00  0.00000000E+00
  0.00000000E+00  0.00000000E+00  0.00000000E+00
  0.00000000E+00  0.00000000E+00  0.00000000E+00
  0.00000000E+00  0.00000000E+00  0.00000000E+00
  0.00000000E+00  0.00000000E+00  0.00000000E+00
  0.00000000E+00  0.00000000E+00  0.00000000E+00
  0.00000000E+00  0.00000000E+00  0.00000000E+00
  0.00000000E+00  0.00000000E+00  0.00000000E+00
  0.00000000E+00  0.00000000E+00  0.00000000E+00
  0.00000000E+00  0.00000000E+00  0.00000000E+00
  0.00000000E+00  0.00000000E+00  0.00000000E+00
  0.00000000E+00  0.00000000E+00  0.00000000E+00
  0.00000000E+00  0.00000000E+00  0.00000000E+00
  0.00000000E+00  0.00000000E+00  0.00000000E+00
  0.00000000E+00  0.00000000E+00  0.00000000E+00
  0.00000000E+00  0.00000000E+00  0.00000000E+00
  0.00000000E+00  0.00000000E+00  0.00000000E+00
  0.00000000E+00  0.00000000E+00  0.00000000E+00
  0.00000000E+00  0.00000000E+00  0.00000000E+00
  0.00000000E+00  0.00000000E+00  0.00000000E+00
  0.00000000E+00  0.00000000E+00  0.00000000E+00
  0.00000000E+00  0.00000000E+00  0.00000000E+00
  0.00000000E+00  0.00000000E+00  0.00000000E+00
  0.00000000E+00  0.00000000E+00  0.00000000E+00
  0.00000000E+00  0.00000000E+00  0.00000000E+00
  0.00000000E+00  0.00000000E+00  0.00000000E+00
  0.00000000E+00  0.00000000E+00  0.00000000E+00
  0.00000000E+00  0.00000000E+00  0.00000000E+00
  0.00000000E+00  0.00000000E+00  0.00000000E+00
  0.00000000E+00  0.00000000E+00  0.00000000E+00
  0.00000000E+00  0.00000000E+00  0.00000000E+00
  0.00000000E+00  0.00000000E+00  0.00000000E+00
  0.00000000E+00  0.00000000E+00  0.00000000E+00
  0.00000000E+00  0.00000000E+00  0.00000000E+00
  0.00000000E+00  0.00000000E+00  0.00000000E+00
  0.00000000E+00  0.00000000E+00  0.00000000E+00
  0.00000000E+00  0.00000000E+00  0.00000000E+00
  0.00000000E+00  0.00000000E+00  0.00000000E+00
  0.00000000E+00  0.00000000E+00  0.00000000E+00
  0.00000000E+00  0.00000000E+00  0.00000000E+00
  0.00000000E+00  0.00000000E+00  0.00000000E+00
  0.00000000E+00  0.00000000E+00  0.00000000E+00
  0.00000000E+00  0.00000000E+00  0.00000000E+00
  0.00000000E+00  0.00000000E+00  0.00000000E+00
  0.00000000E+00  0.00000000E+00  0.00000000E+00
  0.00000000E+00  0.00000000E+00  0.00000000E+00
  0.00000000E+00  0.00000000E+00  0.00000000E+00
  0.00000000E+00  0.00000000E+00  0.00000000E+00
  0.00000000E+00  0.00000000E+00  0.00000000E+00
  0.00000000E+00  0.00000000E+00  0.00000000E+00
  0.00000000E+00  0.00000000E+00  0.00000000E+00
  0.00000000E+00  0.00000000E+00  0.00000000E+00
  0.00000000E+00  0.00000000E+00  0.00000000E+00
  0.00000000E+00  0.00000000E+00  0.00000000E+00
  0.00000000E+00  0.00000000E+00  0.00000000E+00
  0.00000000E+00  0.00000000E+00  0.00000000E+00
  0.00000000E+00  0.00000000E+00  0.00000000E+00
  0.00000000E+00  0.00000000E+00  0.00000000E+00
  0.00000000E+00  0.00000000E+00  0.00000000E+00
  0.00000000E+00  0.00000000E+00  0.00000000E+00
  0.00000000E+00  0.00000000E+00  0.00000000E+00
  0.00000000E+00  0.00000000E+00  0.00000000E+00
  0.00000000E+00  0.00000000E+00  0.00000000E+00
  0.00000000E+00  0.00000000E+00  0.00000000E+00
  0.00000000E+00  0.00000000E+00  0.00000000E+00
  0.00000000E+00  0.00000000E+00  0.00000000E+00
  0.00000000E+00  0.00000000E+00  0.00000000E+00
  0.00000000E+00  0.00000000E+00  0.00000000E+00
  0.00000000E+00  0.00000000E+00  0.00000000E+00
  0.00000000E+00  0.00000000E+00  0.00000000E+00
  0.00000000E+00  0.00000000E+00  0.00000000E+00
  0.00000000E+00  0.00000000E+00  0.00000000E+00
  0.00000000E+00  0.00000000E+00  0.00000000E+00
  0.00000000E+00  0.00000000E+00  0.00000000E+00
  0.00000000E+00  0.00000000E+00  0.00000000E+00
  0.00000000E+00  0.00000000E+00  0.00000000E+00
  0.00000000E+00  0.00000000E+00  0.00000000E+00
  0.00000000E+00  0.00000000E+00  0.00000000E+00
  0.00000000E+00  0.00000000E+00  0.00000000E+00
