 C  N Fe                                
   1.00000000000000     
     8.4473783589470859    0.0000000000000001    0.0000000000000000
    -0.0000000000000001    8.4472417198960006    0.0000000000000000
    -0.0000000000000002    0.0000000000000000   19.8713392818999957
   C    N    Fe
    22     2     1
Direct
  0.5001272786658348  0.0850569158587384  0.1542655266578779
  0.3551317141301100  0.1662900379814693  0.1542578750276358
  0.6473169435445130  0.1667265910789034  0.1542280398308886
  0.7947785512254640  0.9167676315289444  0.1541617104996333
  0.7957411920079862  0.0827608022214089  0.1541629557940144
  0.9172201702160341  0.2041935538612577  0.1541481892005427
  0.8333059258098248  0.3526798307406520  0.1541931966774526
  0.2051759643747950  0.0831458233696272  0.1541822053768920
  0.0831963133317958  0.2051902910174189  0.1541610055831800
  0.1664328183508383  0.3551062360782904  0.1542257427033226
  0.0851915856935546  0.5001014193353528  0.1542215810192925
  0.1667439705555646  0.6472996730873409  0.1542155396838006
  0.3526952858031137  0.8332948951329094  0.1542424141673446
  0.2041949645207358  0.9172281070241373  0.1541796879614206
  0.0827578930827981  0.7957515431926387  0.1541611937813945
  0.6448617181197702  0.8335480185852274  0.1542341911272438
  0.8336814380287454  0.6448135678134992  0.1542046748070745
  0.9168229051676204  0.7948012856815906  0.1541498496337829
  0.4998725248711243  0.9148549967161687  0.1542611376329475
  0.9149854081069524  0.4998415405687969  0.1542024633658440
  0.6654782150011018  0.6653540996946841  0.1542640989860451
  0.3345884734673211  0.3344808985177047  0.1542945457747926
  0.6692933628149002  0.3307458821546969  0.1542342652360817
  0.3307407390944408  0.6692841964144003  0.1542557172847253
  0.5000142050153163  0.4999950795865904  0.1543052020075636
 
  0.00000000E+00  0.00000000E+00  0.00000000E+00
  0.00000000E+00  0.00000000E+00  0.00000000E+00
  0.00000000E+00  0.00000000E+00  0.00000000E+00
  0.00000000E+00  0.00000000E+00  0.00000000E+00
  0.00000000E+00  0.00000000E+00  0.00000000E+00
  0.00000000E+00  0.00000000E+00  0.00000000E+00
  0.00000000E+00  0.00000000E+00  0.00000000E+00
  0.00000000E+00  0.00000000E+00  0.00000000E+00
  0.00000000E+00  0.00000000E+00  0.00000000E+00
  0.00000000E+00  0.00000000E+00  0.00000000E+00
  0.00000000E+00  0.00000000E+00  0.00000000E+00
  0.00000000E+00  0.00000000E+00  0.00000000E+00
  0.00000000E+00  0.00000000E+00  0.00000000E+00
  0.00000000E+00  0.00000000E+00  0.00000000E+00
  0.00000000E+00  0.00000000E+00  0.00000000E+00
  0.00000000E+00  0.00000000E+00  0.00000000E+00
  0.00000000E+00  0.00000000E+00  0.00000000E+00
  0.00000000E+00  0.00000000E+00  0.00000000E+00
  0.00000000E+00  0.00000000E+00  0.00000000E+00
  0.00000000E+00  0.00000000E+00  0.00000000E+00
  0.00000000E+00  0.00000000E+00  0.00000000E+00
  0.00000000E+00  0.00000000E+00  0.00000000E+00
  0.00000000E+00  0.00000000E+00  0.00000000E+00
  0.00000000E+00  0.00000000E+00  0.00000000E+00
  0.00000000E+00  0.00000000E+00  0.00000000E+00
