 C  N  H Cu                             
   1.00000000000000     
    11.1406305116896487  -19.2991626180322662    0.0029768331959390
    11.1405213064719426   19.2990995143919264    0.0039341571825775
     0.0047290396734716    0.0003748548248023   14.2252669409466534
   C    N    H    Cu
   194     8    16     1
Direct
 -0.0000031285098275  0.0000035016787750  0.1129906588260189
  0.0370720920796712  0.0740952397537949  0.1131634332411340
  0.0000120799107109  0.1111267076772858  0.1130344940758455
  0.0370753287310531  0.1852047069786958  0.1131720736051710
  0.0000212743288545  0.2222392823373736  0.1129845110719049
  0.0370802803867463  0.2963223035359941  0.1128899457891711
  0.0000192093891013  0.3333438336326751  0.1128431016392771
  0.0370928356582585  0.4074294562216445  0.1125202476915709
  0.0000022407359784  0.4444401454278566  0.1128748191596732
  0.0370619033917602  0.5185131358534021  0.1127697389973505
  0.9999838663957580  0.5555384388668901  0.1130452316643668
  0.0370293585698370  0.6296116772101479  0.1129536823140592
  0.9999662867951427  0.6666374635318665  0.1129488053161920
  0.0370191052927164  0.7407203131799526  0.1127878691859936
  0.9999643453617909  0.7777585488258519  0.1127991558379867
  0.0370221136274626  0.8518402327799491  0.1127488118842442
  0.9999762810668581  0.8888802927407686  0.1128440366775101
  0.0370444654668441  0.9629719203494757  0.1129627362851799
  0.1111309876603526  0.0000475699835165  0.1131672930462354
  0.1482013295420511  0.0741307547960252  0.1134691678025039
  0.1111536447677827  0.1111629539932336  0.1134979172866272
  0.1482121845229346  0.1852369074528402  0.1136925760902042
  0.1111661849850358  0.2222641998586576  0.1135304405883631
  0.1482205665470191  0.2963448572262267  0.1133570488399346
  0.1111728884463672  0.3333873952099101  0.1127266138900175
  0.1482158314622972  0.4074441426872702  0.1116291101319545
  0.1111758410940592  0.4444671345443728  0.1114714402202574
  0.1482238370183133  0.5185223134588326  0.1107713985874703
  0.1111544314516531  0.5555249473440783  0.1119973824866586
  0.1481831032137557  0.6296055965336600  0.1123254973118967
  0.1111156661581874  0.6666433878466034  0.1128052457454785
  0.1481484115174476  0.7407215778262088  0.1127544746157146
  0.1110949206589514  0.7777627717175536  0.1127212193706091
  0.1481441003824465  0.8518490994437228  0.1127213397519726
  0.1111051569574871  0.8888962186806281  0.1127850729265472
  0.1481640169468472  0.9629891539732574  0.1130527788754963
  0.2222377760419029  0.0000570178796396  0.1132068194157411
  0.2592776458889877  0.0741453410263480  0.1134829156052151
  0.2222645238700408  0.1111942524409015  0.1136140495456989
  0.2593012621227559  0.1852499009214714  0.1138706889162388
  0.2222695172415749  0.2222880426480897  0.1139086258876802
  0.2592721279807409  0.2963270206534445  0.1140699376017359
  0.2222663866503126  0.3333817133984303  0.1135489918701952
  0.2592654741149608  0.4074296880490026  0.1128531399162266
  0.2222709256324368  0.4444724820011396  0.1114057765117775
  0.2593000605641160  0.5185232704900306  0.1107119047942236
  0.2222727326952598  0.5555403333068066  0.1100839677895629
  0.2592948785380157  0.6295776420516943  0.1107655025778931
  0.2222621145499465  0.6666169687107785  0.1118507045779237
  0.2592716656997492  0.7407016607143605  0.1125226828803264
  0.2222264381230721  0.7777554151730448  0.1127304611188812
  0.2592645804789715  0.8518428577497774  0.1127626730756976
  0.2222196104881948  0.8888973486211847  0.1127976139570078
  0.2592617349821245  0.9629850876912297  0.1130060860487778
  0.3333351276013189  0.0000296431111187  0.1130585674941144
  0.3703645470222069  0.0741217202166194  0.1133379992098058
  0.3333369913790664  0.1111914372671183  0.1135555875681856
  0.3703647180086051  0.1852504222392557  0.1137176810179549
  0.3333250294297012  0.2222701461533301  0.1139612478081596
  0.3703718982971569  0.2963301210367051  0.1143572341565287
  0.3333277630448924  0.3333566694073606  0.1145367260698920
  0.3703447015980845  0.4074095067982025  0.1147862908311639
  0.3333209058443573  0.4444588331235630  0.1138209889992176
  0.3703666152710143  0.5185147107374501  0.1134772931484427
  0.3333229363957911  0.5555327022298476  0.1119164716541084
  0.3703867322517123  0.6295780503384533  0.1122175026391099
  0.3333364551453907  0.6665892415892209  0.1117333639319098
  0.3703708900064461  0.7406614210609170  0.1126989067174222
  0.3333452600908874  0.7777400066138754  0.1127055551166151
  0.3703713832583542  0.8518210880900636  0.1128206651038189
  0.3333322609235057  0.8888797600694345  0.1127679727266990
  0.3703663377133598  0.9629690536170381  0.1128380199330571
  0.4444348993311656  0.0000055896844389  0.1128099970224298
  0.4814612833217614  0.0740871001440816  0.1129308590119134
  0.4444318016212788  0.1111567669205271  0.1132390725174309
  0.4814547734581579  0.1852449082959017  0.1131646926190607
  0.4444223789458808  0.2222893331433375  0.1134482508275540
  0.4814822734830736  0.2963445938244367  0.1132092762994372
  0.4444285725109237  0.3333545745325206  0.1140521417267593
  0.4814726499243882  0.4073823520839720  0.1145287140529509
  0.4444156658094194  0.4444221201579191  0.1151834948568965
  0.4814734981633350  0.5185110188893353  0.1151653633663817
  0.4444242576097162  0.5555366579073835  0.1144628625281898
  0.4814773711381766  0.6295801583765983  0.1140764723795368
  0.4444192803847244  0.6665818254686877  0.1134178727388629
  0.4814746502233392  0.7406436022622308  0.1136108215217778
  0.4444440874190613  0.7776978375643452  0.1133037448514043
  0.4814701034417861  0.8517907560629823  0.1132354765513787
  0.4444424552547110  0.8888561149871749  0.1129150083934877
  0.4814731702595470  0.9629443156543934  0.1127911430097360
  0.5555359806846313  0.9999779245766457  0.1128203600901538
  0.5925687637526755  0.0740666434449027  0.1127663325937626
  0.5555323622456686  0.1111229347284396  0.1128159571264571
  0.5925590362651642  0.1852091812837251  0.1125745337963222
  0.5555320150132640  0.2222885129454394  0.1124276752777441
  0.5925601740100689  0.2963430691526664  0.1113193808021822
  0.5555010327395103  0.3333493692204749  0.1120031783590706
  0.5925631295904892  0.4073937084343741  0.1121223114187397
  0.5555322897962871  0.4444141513571622  0.1137139973848008
  0.5925760744663747  0.5184767443669519  0.1141887467308908
  0.5555513302229599  0.5555206014411350  0.1149221079239035
  0.5925693816639357  0.6295699464224422  0.1145849654595190
  0.5555204253339965  0.6665937834868472  0.1143258258986866
  0.5925727899845358  0.7406556366796255  0.1138986626539252
  0.5555395672335132  0.7776777255497117  0.1137703762407894
  0.5925690848176961  0.8517518508447179  0.1135839779531317
  0.5555413805171908  0.8888279280627401  0.1133196607386184
  0.5925696828597403  0.9629136979655054  0.1130138121587793
  0.6666437374366669  0.9999593112150421  0.1129795952759301
  0.7036876678890605  0.0740525412931555  0.1127912170033973
  0.6666410379307711  0.1111064032538590  0.1127642919170560
  0.7036732340695508  0.1851885756873227  0.1126939372691635
  0.6666266357703670  0.2222481775518308  0.1123538109570370
  0.7036305275279395  0.2963293715263121  0.1115607249447238
  0.6665988374285713  0.3333589728079472  0.1104465053683533
  0.7036322241174348  0.4074017969330945  0.1103066039522991
  0.6666045966744928  0.4444150187209326  0.1112821751223849
  0.7036305630334199  0.5184588382732214  0.1122929176296612
  0.6666245114097616  0.5555030978267523  0.1135211357980507
  0.7036294791741246  0.6295550111027728  0.1139393204254341
  0.6666201715896212  0.6666012337887404  0.1141727963217180
  0.7036353199253951  0.7406516036407862  0.1138520859776895
  0.6666026778352663  0.7776815102590814  0.1137558533454339
  0.7036398338176777  0.8517352645652555  0.1135330723230591
  0.6666281897643279  0.8887965249090397  0.1134685436855604
  0.7036676225628766  0.9628911378521294  0.1131682655560095
  0.7777464826045384  0.9999607962457503  0.1130143898323759
  0.8148000749810840  0.0740480032489074  0.1127712994699437
  0.7777564498266635  0.1110960489915673  0.1127296557015770
  0.8148035898232064  0.1851825221398063  0.1127464855437636
  0.7777513682198661  0.2222214850413172  0.1127570240155925
  0.8147830507217655  0.2963056049472382  0.1127921948365896
  0.7777126804326927  0.3333445799651966  0.1122325629412028
  0.8147411341140818  0.4074141126344784  0.1120633941124359
  0.7776681904455399  0.4444188879695292  0.1110901564247734
  0.8147191693356208  0.5184671544233854  0.1120069974699852
  0.7776789266955941  0.5554864482007082  0.1124347032220582
  0.8147323700901112  0.6295607164900563  0.1132152742561836
  0.7776845618675416  0.6665993239140541  0.1136910468869256
  0.8147354449156710  0.7406748853140037  0.1136146772884498
  0.7776839056673772  0.7777002721062968  0.1136547320458914
  0.8147466497544107  0.8517732537144554  0.1134332258237391
  0.7777054645412328  0.8888065273898498  0.1133966164824218
  0.8147775521824921  0.9628990817629842  0.1131150092327673
  0.8888593002349113  0.9999728647780326  0.1129455481273209
  0.9259258370827826  0.0740643065232978  0.1128397627857128
  0.8888819588140491  0.1111016020371759  0.1127522107310996
  0.9259412378591633  0.1851891258009549  0.1127996825160339
  0.8888842555918396  0.2222270909182798  0.1128062859036102
  0.9259304893638977  0.2963016278550801  0.1129288486504970
  0.8888643659246133  0.3333316771187445  0.1129693240270451
  0.9259083703012079  0.4074037148965984  0.1130396764771997
  0.8888314746184834  0.4444246719506759  0.1128446903739350
  0.9258971082659329  0.5185044696598080  0.1129710261403461
  0.8888058548104217  0.5555129187537203  0.1127842605026030
  0.9258772030431239  0.6295928921055605  0.1130010192086584
  0.8888151936553101  0.6666193441279824  0.1131127565007407
  0.9258774649650943  0.7407033971174417  0.1130433372408217
  0.8888252359073300  0.7777337648796959  0.1132171023167421
  0.9258958242592230  0.8518198539668814  0.1130231657842771
  0.8888351198315928  0.8888498656603085  0.1131379456133222
  0.9259080633081987  0.9629367570494023  0.1129720930198404
  0.2667605451309222  0.1332862258452476  0.3743709201836068
  0.3359837849940373  0.1866800130409285  0.3675305436849322
  0.3488346591256227  0.2549360628105622  0.3618612863951415
  0.2937074682133206  0.2694111706631260  0.3625079568617996
  0.2245273580794587  0.2159985195547569  0.3692327976037516
  0.2117574879480557  0.1477583295784237  0.3753729519346747
  0.3254703575934774  0.3449087072496785  0.3565219667601405
  0.4130845196540746  0.3219511093957587  0.3559729735334506
  0.3177298056244772  0.4459375488204579  0.3511294517513573
  0.3947637820583745  0.5604127017590639  0.3525205436332788
  0.2774099071732563  0.4814282984765724  0.3466610035700090
  0.3258412929787419  0.5534259795215311  0.3477921174811250
  0.3040530104092307  0.6024622263568045  0.3430232318977803
  0.2326459759034483  0.5777164534805177  0.3368377327675938
  0.1842794806662162  0.5058336877954351  0.3353742838745027
  0.2060236015008945  0.4567588603274226  0.3402322992624550
  0.5342474463070344  0.3893537638530037  0.3516896879467492
  0.6112387352242821  0.5038081695237356  0.3557505389023496
  0.6252167537960760  0.3476865122967244  0.3403842319364490
  0.6967512169965514  0.3726169891574685  0.3365712438834791
  0.7450974438909244  0.4444441699891269  0.3403095983304787
  0.7231892816346551  0.4933089835055405  0.3475368232740878
  0.6516759464042784  0.4684436853427329  0.3510302971181051
  0.6032535713815117  0.3964648271236085  0.3478720352842538
  0.6034389918958750  0.6048014648443897  0.3615174630013825
  0.5158598770533106  0.6277944261810809  0.3590320402970077
  0.6352221711625823  0.6803596643881149  0.3658414433530160
  0.7044603536452531  0.7338680098647093  0.3704425127824025
  0.7173401031794507  0.8022504019366289  0.3725213215737568
  0.6623741146845602  0.8167474568651502  0.3699659578864996
  0.5930749263023932  0.7632373014487469  0.3657174038166828
  0.5801261836119901  0.6948565957010336  0.3638131654554163
  0.3968442355302587  0.3743427327713176  0.3538639300975345
  0.2886860104340339  0.3771254308523248  0.3535937134470306
  0.3876350508853160  0.4949692128619382  0.3536483109517493
  0.4757943876550705  0.3281915895553363  0.3530420336114127
  0.5413382856964628  0.4547630533799116  0.3552542829195799
  0.6402319694628485  0.5725768048652330  0.3597235195558618
  0.5320856082894633  0.5753716261310685  0.3581501925985570
  0.4531647714873678  0.6215579606581285  0.3555961044119789
  0.2549405825765944  0.0795264385608836  0.3791961868561038
  0.3787823949448620  0.1759682082848613  0.3668295256240573
  0.1823897450242301  0.2276942542869336  0.3700010131555328
  0.1584834837322517  0.1049185716180739  0.3810965085940305
  0.3417738121437698  0.6578293764870764  0.3426533058664371
  0.2139147703762258  0.6144627848457772  0.3308830202832351
  0.1291751104703236  0.4884967161228899  0.3281505662953939
  0.1691503422025526  0.4012206753267036  0.3373673400018866
  0.5875790484177081  0.2924216971851397  0.3357621171304874
  0.7156236558963289  0.3361374900192756  0.3282901779907372
  0.8003909798891931  0.4619916165638037  0.3355654618047341
  0.7600735477074765  0.5488787014080729  0.3491015050667732
  0.7465680941616546  0.7221424303683598  0.3721174781255892
  0.7706948897595279  0.8451963045303094  0.3757781505304920
  0.6743047567661729  0.8706331962458848  0.3710327426751017
  0.5503129815966018  0.7739713486040702  0.3634796083238400
  0.4644894374679828  0.4748760017365265  0.3537772291094743
 
  0.00000000E+00  0.00000000E+00  0.00000000E+00
  0.00000000E+00  0.00000000E+00  0.00000000E+00
  0.00000000E+00  0.00000000E+00  0.00000000E+00
  0.00000000E+00  0.00000000E+00  0.00000000E+00
  0.00000000E+00  0.00000000E+00  0.00000000E+00
  0.00000000E+00  0.00000000E+00  0.00000000E+00
  0.00000000E+00  0.00000000E+00  0.00000000E+00
  0.00000000E+00  0.00000000E+00  0.00000000E+00
  0.00000000E+00  0.00000000E+00  0.00000000E+00
  0.00000000E+00  0.00000000E+00  0.00000000E+00
  0.00000000E+00  0.00000000E+00  0.00000000E+00
  0.00000000E+00  0.00000000E+00  0.00000000E+00
  0.00000000E+00  0.00000000E+00  0.00000000E+00
  0.00000000E+00  0.00000000E+00  0.00000000E+00
  0.00000000E+00  0.00000000E+00  0.00000000E+00
  0.00000000E+00  0.00000000E+00  0.00000000E+00
  0.00000000E+00  0.00000000E+00  0.00000000E+00
  0.00000000E+00  0.00000000E+00  0.00000000E+00
  0.00000000E+00  0.00000000E+00  0.00000000E+00
  0.00000000E+00  0.00000000E+00  0.00000000E+00
  0.00000000E+00  0.00000000E+00  0.00000000E+00
  0.00000000E+00  0.00000000E+00  0.00000000E+00
  0.00000000E+00  0.00000000E+00  0.00000000E+00
  0.00000000E+00  0.00000000E+00  0.00000000E+00
  0.00000000E+00  0.00000000E+00  0.00000000E+00
  0.00000000E+00  0.00000000E+00  0.00000000E+00
  0.00000000E+00  0.00000000E+00  0.00000000E+00
  0.00000000E+00  0.00000000E+00  0.00000000E+00
  0.00000000E+00  0.00000000E+00  0.00000000E+00
  0.00000000E+00  0.00000000E+00  0.00000000E+00
  0.00000000E+00  0.00000000E+00  0.00000000E+00
  0.00000000E+00  0.00000000E+00  0.00000000E+00
  0.00000000E+00  0.00000000E+00  0.00000000E+00
  0.00000000E+00  0.00000000E+00  0.00000000E+00
  0.00000000E+00  0.00000000E+00  0.00000000E+00
  0.00000000E+00  0.00000000E+00  0.00000000E+00
  0.00000000E+00  0.00000000E+00  0.00000000E+00
  0.00000000E+00  0.00000000E+00  0.00000000E+00
  0.00000000E+00  0.00000000E+00  0.00000000E+00
  0.00000000E+00  0.00000000E+00  0.00000000E+00
  0.00000000E+00  0.00000000E+00  0.00000000E+00
  0.00000000E+00  0.00000000E+00  0.00000000E+00
  0.00000000E+00  0.00000000E+00  0.00000000E+00
  0.00000000E+00  0.00000000E+00  0.00000000E+00
  0.00000000E+00  0.00000000E+00  0.00000000E+00
  0.00000000E+00  0.00000000E+00  0.00000000E+00
  0.00000000E+00  0.00000000E+00  0.00000000E+00
  0.00000000E+00  0.00000000E+00  0.00000000E+00
  0.00000000E+00  0.00000000E+00  0.00000000E+00
  0.00000000E+00  0.00000000E+00  0.00000000E+00
  0.00000000E+00  0.00000000E+00  0.00000000E+00
  0.00000000E+00  0.00000000E+00  0.00000000E+00
  0.00000000E+00  0.00000000E+00  0.00000000E+00
  0.00000000E+00  0.00000000E+00  0.00000000E+00
  0.00000000E+00  0.00000000E+00  0.00000000E+00
  0.00000000E+00  0.00000000E+00  0.00000000E+00
  0.00000000E+00  0.00000000E+00  0.00000000E+00
  0.00000000E+00  0.00000000E+00  0.00000000E+00
  0.00000000E+00  0.00000000E+00  0.00000000E+00
  0.00000000E+00  0.00000000E+00  0.00000000E+00
  0.00000000E+00  0.00000000E+00  0.00000000E+00
  0.00000000E+00  0.00000000E+00  0.00000000E+00
  0.00000000E+00  0.00000000E+00  0.00000000E+00
  0.00000000E+00  0.00000000E+00  0.00000000E+00
  0.00000000E+00  0.00000000E+00  0.00000000E+00
  0.00000000E+00  0.00000000E+00  0.00000000E+00
  0.00000000E+00  0.00000000E+00  0.00000000E+00
  0.00000000E+00  0.00000000E+00  0.00000000E+00
  0.00000000E+00  0.00000000E+00  0.00000000E+00
  0.00000000E+00  0.00000000E+00  0.00000000E+00
  0.00000000E+00  0.00000000E+00  0.00000000E+00
  0.00000000E+00  0.00000000E+00  0.00000000E+00
  0.00000000E+00  0.00000000E+00  0.00000000E+00
  0.00000000E+00  0.00000000E+00  0.00000000E+00
  0.00000000E+00  0.00000000E+00  0.00000000E+00
  0.00000000E+00  0.00000000E+00  0.00000000E+00
  0.00000000E+00  0.00000000E+00  0.00000000E+00
  0.00000000E+00  0.00000000E+00  0.00000000E+00
  0.00000000E+00  0.00000000E+00  0.00000000E+00
  0.00000000E+00  0.00000000E+00  0.00000000E+00
  0.00000000E+00  0.00000000E+00  0.00000000E+00
  0.00000000E+00  0.00000000E+00  0.00000000E+00
  0.00000000E+00  0.00000000E+00  0.00000000E+00
  0.00000000E+00  0.00000000E+00  0.00000000E+00
  0.00000000E+00  0.00000000E+00  0.00000000E+00
  0.00000000E+00  0.00000000E+00  0.00000000E+00
  0.00000000E+00  0.00000000E+00  0.00000000E+00
  0.00000000E+00  0.00000000E+00  0.00000000E+00
  0.00000000E+00  0.00000000E+00  0.00000000E+00
  0.00000000E+00  0.00000000E+00  0.00000000E+00
  0.00000000E+00  0.00000000E+00  0.00000000E+00
  0.00000000E+00  0.00000000E+00  0.00000000E+00
  0.00000000E+00  0.00000000E+00  0.00000000E+00
  0.00000000E+00  0.00000000E+00  0.00000000E+00
  0.00000000E+00  0.00000000E+00  0.00000000E+00
  0.00000000E+00  0.00000000E+00  0.00000000E+00
  0.00000000E+00  0.00000000E+00  0.00000000E+00
  0.00000000E+00  0.00000000E+00  0.00000000E+00
  0.00000000E+00  0.00000000E+00  0.00000000E+00
  0.00000000E+00  0.00000000E+00  0.00000000E+00
  0.00000000E+00  0.00000000E+00  0.00000000E+00
  0.00000000E+00  0.00000000E+00  0.00000000E+00
  0.00000000E+00  0.00000000E+00  0.00000000E+00
  0.00000000E+00  0.00000000E+00  0.00000000E+00
  0.00000000E+00  0.00000000E+00  0.00000000E+00
  0.00000000E+00  0.00000000E+00  0.00000000E+00
  0.00000000E+00  0.00000000E+00  0.00000000E+00
  0.00000000E+00  0.00000000E+00  0.00000000E+00
  0.00000000E+00  0.00000000E+00  0.00000000E+00
  0.00000000E+00  0.00000000E+00  0.00000000E+00
  0.00000000E+00  0.00000000E+00  0.00000000E+00
  0.00000000E+00  0.00000000E+00  0.00000000E+00
  0.00000000E+00  0.00000000E+00  0.00000000E+00
  0.00000000E+00  0.00000000E+00  0.00000000E+00
  0.00000000E+00  0.00000000E+00  0.00000000E+00
  0.00000000E+00  0.00000000E+00  0.00000000E+00
  0.00000000E+00  0.00000000E+00  0.00000000E+00
  0.00000000E+00  0.00000000E+00  0.00000000E+00
  0.00000000E+00  0.00000000E+00  0.00000000E+00
  0.00000000E+00  0.00000000E+00  0.00000000E+00
  0.00000000E+00  0.00000000E+00  0.00000000E+00
  0.00000000E+00  0.00000000E+00  0.00000000E+00
  0.00000000E+00  0.00000000E+00  0.00000000E+00
  0.00000000E+00  0.00000000E+00  0.00000000E+00
  0.00000000E+00  0.00000000E+00  0.00000000E+00
  0.00000000E+00  0.00000000E+00  0.00000000E+00
  0.00000000E+00  0.00000000E+00  0.00000000E+00
  0.00000000E+00  0.00000000E+00  0.00000000E+00
  0.00000000E+00  0.00000000E+00  0.00000000E+00
  0.00000000E+00  0.00000000E+00  0.00000000E+00
  0.00000000E+00  0.00000000E+00  0.00000000E+00
  0.00000000E+00  0.00000000E+00  0.00000000E+00
  0.00000000E+00  0.00000000E+00  0.00000000E+00
  0.00000000E+00  0.00000000E+00  0.00000000E+00
  0.00000000E+00  0.00000000E+00  0.00000000E+00
  0.00000000E+00  0.00000000E+00  0.00000000E+00
  0.00000000E+00  0.00000000E+00  0.00000000E+00
  0.00000000E+00  0.00000000E+00  0.00000000E+00
  0.00000000E+00  0.00000000E+00  0.00000000E+00
  0.00000000E+00  0.00000000E+00  0.00000000E+00
  0.00000000E+00  0.00000000E+00  0.00000000E+00
  0.00000000E+00  0.00000000E+00  0.00000000E+00
  0.00000000E+00  0.00000000E+00  0.00000000E+00
  0.00000000E+00  0.00000000E+00  0.00000000E+00
  0.00000000E+00  0.00000000E+00  0.00000000E+00
  0.00000000E+00  0.00000000E+00  0.00000000E+00
  0.00000000E+00  0.00000000E+00  0.00000000E+00
  0.00000000E+00  0.00000000E+00  0.00000000E+00
  0.00000000E+00  0.00000000E+00  0.00000000E+00
  0.00000000E+00  0.00000000E+00  0.00000000E+00
  0.00000000E+00  0.00000000E+00  0.00000000E+00
  0.00000000E+00  0.00000000E+00  0.00000000E+00
  0.00000000E+00  0.00000000E+00  0.00000000E+00
  0.00000000E+00  0.00000000E+00  0.00000000E+00
  0.00000000E+00  0.00000000E+00  0.00000000E+00
  0.00000000E+00  0.00000000E+00  0.00000000E+00
  0.00000000E+00  0.00000000E+00  0.00000000E+00
  0.00000000E+00  0.00000000E+00  0.00000000E+00
  0.00000000E+00  0.00000000E+00  0.00000000E+00
  0.00000000E+00  0.00000000E+00  0.00000000E+00
  0.00000000E+00  0.00000000E+00  0.00000000E+00
  0.00000000E+00  0.00000000E+00  0.00000000E+00
  0.00000000E+00  0.00000000E+00  0.00000000E+00
  0.00000000E+00  0.00000000E+00  0.00000000E+00
  0.00000000E+00  0.00000000E+00  0.00000000E+00
  0.00000000E+00  0.00000000E+00  0.00000000E+00
  0.00000000E+00  0.00000000E+00  0.00000000E+00
  0.00000000E+00  0.00000000E+00  0.00000000E+00
  0.00000000E+00  0.00000000E+00  0.00000000E+00
  0.00000000E+00  0.00000000E+00  0.00000000E+00
  0.00000000E+00  0.00000000E+00  0.00000000E+00
  0.00000000E+00  0.00000000E+00  0.00000000E+00
  0.00000000E+00  0.00000000E+00  0.00000000E+00
  0.00000000E+00  0.00000000E+00  0.00000000E+00
  0.00000000E+00  0.00000000E+00  0.00000000E+00
  0.00000000E+00  0.00000000E+00  0.00000000E+00
  0.00000000E+00  0.00000000E+00  0.00000000E+00
  0.00000000E+00  0.00000000E+00  0.00000000E+00
  0.00000000E+00  0.00000000E+00  0.00000000E+00
  0.00000000E+00  0.00000000E+00  0.00000000E+00
  0.00000000E+00  0.00000000E+00  0.00000000E+00
  0.00000000E+00  0.00000000E+00  0.00000000E+00
  0.00000000E+00  0.00000000E+00  0.00000000E+00
  0.00000000E+00  0.00000000E+00  0.00000000E+00
  0.00000000E+00  0.00000000E+00  0.00000000E+00
  0.00000000E+00  0.00000000E+00  0.00000000E+00
  0.00000000E+00  0.00000000E+00  0.00000000E+00
  0.00000000E+00  0.00000000E+00  0.00000000E+00
  0.00000000E+00  0.00000000E+00  0.00000000E+00
  0.00000000E+00  0.00000000E+00  0.00000000E+00
  0.00000000E+00  0.00000000E+00  0.00000000E+00
  0.00000000E+00  0.00000000E+00  0.00000000E+00
  0.00000000E+00  0.00000000E+00  0.00000000E+00
  0.00000000E+00  0.00000000E+00  0.00000000E+00
  0.00000000E+00  0.00000000E+00  0.00000000E+00
  0.00000000E+00  0.00000000E+00  0.00000000E+00
  0.00000000E+00  0.00000000E+00  0.00000000E+00
  0.00000000E+00  0.00000000E+00  0.00000000E+00
  0.00000000E+00  0.00000000E+00  0.00000000E+00
  0.00000000E+00  0.00000000E+00  0.00000000E+00
  0.00000000E+00  0.00000000E+00  0.00000000E+00
  0.00000000E+00  0.00000000E+00  0.00000000E+00
  0.00000000E+00  0.00000000E+00  0.00000000E+00
  0.00000000E+00  0.00000000E+00  0.00000000E+00
  0.00000000E+00  0.00000000E+00  0.00000000E+00
  0.00000000E+00  0.00000000E+00  0.00000000E+00
  0.00000000E+00  0.00000000E+00  0.00000000E+00
  0.00000000E+00  0.00000000E+00  0.00000000E+00
  0.00000000E+00  0.00000000E+00  0.00000000E+00
  0.00000000E+00  0.00000000E+00  0.00000000E+00
  0.00000000E+00  0.00000000E+00  0.00000000E+00
  0.00000000E+00  0.00000000E+00  0.00000000E+00
  0.00000000E+00  0.00000000E+00  0.00000000E+00
  0.00000000E+00  0.00000000E+00  0.00000000E+00
  0.00000000E+00  0.00000000E+00  0.00000000E+00
  0.00000000E+00  0.00000000E+00  0.00000000E+00
  0.00000000E+00  0.00000000E+00  0.00000000E+00
  0.00000000E+00  0.00000000E+00  0.00000000E+00
  0.00000000E+00  0.00000000E+00  0.00000000E+00
