 C  N Co                                
   1.00000000000000     
    12.5146205773654753    0.0000000000000000    0.0000000000000000
    -0.0000000000000004   12.7877875199062334    0.0000000000000000
     0.0000000000000003    0.0000000000000000   19.8713392819153718
   C    N    Co
    57     1     1
Direct
  0.0521445719730726  0.0476077947443959  0.1594034333923451
  0.1523004117641870  0.1021971779183210  0.1593733426837869
  0.1518247068683219  0.2133016468573637  0.1592972544240084
  0.0521412792767715  0.2686196934946795  0.1592417935741520
  0.2528511811740354  0.0477052827834647  0.1594113530246171
  0.3529370482051138  0.1035384610664309  0.1594292522541667
  0.3525022313188300  0.2158100726851162  0.1593700164961007
  0.2510955974290860  0.2688078702223239  0.1592921760577241
  0.4528448527110444  0.0476078777935037  0.1594657563048981
  0.5522834216524996  0.1055723441228191  0.1594942849671571
  0.5522636746000853  0.2181381230796797  0.1594524015414623
  0.4514228908166115  0.2750026201601271  0.1593646955680867
  0.6517475553140706  0.0478066634286003  0.1594661476868274
  0.7519140160923241  0.1033578423964322  0.1594146783185488
  0.7523110379235460  0.2155174554408732  0.1593636010857343
  0.6536922075853611  0.2741923278198755  0.1593800729297694
  0.8516522392959016  0.0475432483583187  0.1593983363416898
  0.9520365033739498  0.1023440763284201  0.1593699389069123
  0.9522635981982375  0.2135146691382528  0.1592987275186469
  0.8530755197070128  0.2693483436662573  0.1592984030821985
  0.0517868349320894  0.3802148382241178  0.1592030966143660
  0.1497756436405102  0.4360749366373280  0.1591898141084179
  0.1494191278673517  0.5476325923045010  0.1591961073784373
  0.0517507922051331  0.6035868083191021  0.1592148181365834
  0.2479741256034850  0.3798132898114799  0.1592231190264019
  0.3449554261066932  0.4360196551755429  0.1592451371158699
  0.3440999442294397  0.5481329838252685  0.1592764933293480
  0.2475363512038553  0.6038926589317924  0.1592457781594977
  0.7578387660149666  0.4365787383860424  0.1592563361159672
  0.7582503308999062  0.5496229458027552  0.1592891928342667
  0.8553245061180801  0.3808481097582026  0.1592350537105370
  0.9539501653858695  0.4362364948952892  0.1591869742871318
  0.9537819740259710  0.5475231176612950  0.1591769727248143
  0.8558954086883884  0.6043181345771296  0.1592289343017792
  0.0521791495639730  0.7152047763378105  0.1592632252675087
  0.1518874469526985  0.7706074283500252  0.1593084133433519
  0.0522459006276540  0.9365691853205302  0.1594098315370362
  0.2508203186638823  0.7149380825213815  0.1593161073592761
  0.3522039880225298  0.7680308311607614  0.1593845527159412
  0.3526490967569103  0.8799641939918932  0.1594251314438286
  0.2528528202999528  0.9361830107736671  0.1594107549827600
  0.4507821696021433  0.7086622265422180  0.1593971275843934
  0.5527802861514782  0.7635841291924522  0.1594325676030589
  0.5528902771086907  0.8766271938470125  0.1594659304729255
  0.4531087325161539  0.9348771706875526  0.1594611915320042
  0.6552316583777271  0.7077036455837231  0.1594146431361495
  0.7529633359312222  0.7678925258852621  0.1593729419663033
  0.7517856712272371  0.8800718252648021  0.1594223735171359
  0.6519189815307812  0.9352308375102790  0.1594636136868821
  0.8538816765712718  0.7152211976696039  0.1592971132075670
  0.9529583081996501  0.7707472351637650  0.1593166375516716
  0.8517131706037206  0.9359829189700923  0.1594065568418943
  0.1521987453644395  0.8817534164997365  0.1593779963373554
  0.9522166711313537  0.8817338450094584  0.1593758709609194
  0.4470388678076273  0.3872537506635385  0.1593097964281570
  0.4456956389622367  0.5970782438036156  0.1593711218373352
  0.6572585850087274  0.3856779924490904  0.1593432422971658
  0.6610979670250490  0.5994774962086044  0.1594168397341777
  0.5521766837805629  0.4914779408949364  0.1594629841248688
 
  0.00000000E+00  0.00000000E+00  0.00000000E+00
  0.00000000E+00  0.00000000E+00  0.00000000E+00
  0.00000000E+00  0.00000000E+00  0.00000000E+00
  0.00000000E+00  0.00000000E+00  0.00000000E+00
  0.00000000E+00  0.00000000E+00  0.00000000E+00
  0.00000000E+00  0.00000000E+00  0.00000000E+00
  0.00000000E+00  0.00000000E+00  0.00000000E+00
  0.00000000E+00  0.00000000E+00  0.00000000E+00
  0.00000000E+00  0.00000000E+00  0.00000000E+00
  0.00000000E+00  0.00000000E+00  0.00000000E+00
  0.00000000E+00  0.00000000E+00  0.00000000E+00
  0.00000000E+00  0.00000000E+00  0.00000000E+00
  0.00000000E+00  0.00000000E+00  0.00000000E+00
  0.00000000E+00  0.00000000E+00  0.00000000E+00
  0.00000000E+00  0.00000000E+00  0.00000000E+00
  0.00000000E+00  0.00000000E+00  0.00000000E+00
  0.00000000E+00  0.00000000E+00  0.00000000E+00
  0.00000000E+00  0.00000000E+00  0.00000000E+00
  0.00000000E+00  0.00000000E+00  0.00000000E+00
  0.00000000E+00  0.00000000E+00  0.00000000E+00
  0.00000000E+00  0.00000000E+00  0.00000000E+00
  0.00000000E+00  0.00000000E+00  0.00000000E+00
  0.00000000E+00  0.00000000E+00  0.00000000E+00
  0.00000000E+00  0.00000000E+00  0.00000000E+00
  0.00000000E+00  0.00000000E+00  0.00000000E+00
  0.00000000E+00  0.00000000E+00  0.00000000E+00
  0.00000000E+00  0.00000000E+00  0.00000000E+00
  0.00000000E+00  0.00000000E+00  0.00000000E+00
  0.00000000E+00  0.00000000E+00  0.00000000E+00
  0.00000000E+00  0.00000000E+00  0.00000000E+00
  0.00000000E+00  0.00000000E+00  0.00000000E+00
  0.00000000E+00  0.00000000E+00  0.00000000E+00
  0.00000000E+00  0.00000000E+00  0.00000000E+00
  0.00000000E+00  0.00000000E+00  0.00000000E+00
  0.00000000E+00  0.00000000E+00  0.00000000E+00
  0.00000000E+00  0.00000000E+00  0.00000000E+00
  0.00000000E+00  0.00000000E+00  0.00000000E+00
  0.00000000E+00  0.00000000E+00  0.00000000E+00
  0.00000000E+00  0.00000000E+00  0.00000000E+00
  0.00000000E+00  0.00000000E+00  0.00000000E+00
  0.00000000E+00  0.00000000E+00  0.00000000E+00
  0.00000000E+00  0.00000000E+00  0.00000000E+00
  0.00000000E+00  0.00000000E+00  0.00000000E+00
  0.00000000E+00  0.00000000E+00  0.00000000E+00
  0.00000000E+00  0.00000000E+00  0.00000000E+00
  0.00000000E+00  0.00000000E+00  0.00000000E+00
  0.00000000E+00  0.00000000E+00  0.00000000E+00
  0.00000000E+00  0.00000000E+00  0.00000000E+00
  0.00000000E+00  0.00000000E+00  0.00000000E+00
  0.00000000E+00  0.00000000E+00  0.00000000E+00
  0.00000000E+00  0.00000000E+00  0.00000000E+00
  0.00000000E+00  0.00000000E+00  0.00000000E+00
  0.00000000E+00  0.00000000E+00  0.00000000E+00
  0.00000000E+00  0.00000000E+00  0.00000000E+00
  0.00000000E+00  0.00000000E+00  0.00000000E+00
  0.00000000E+00  0.00000000E+00  0.00000000E+00
  0.00000000E+00  0.00000000E+00  0.00000000E+00
  0.00000000E+00  0.00000000E+00  0.00000000E+00
  0.00000000E+00  0.00000000E+00  0.00000000E+00
