 C  N Cr                                
   1.00000000000000     
     8.5052094654231070    0.0000000000000001    0.0000000000000000
    -0.0000000000000001    8.5053055059589280    0.0000000000000000
    -0.0000000000000002    0.0000000000000000   19.8713392818999957
   C    N    Cr
    22     2     1
Direct
  0.4998180802468377  0.0848024646782342  0.1542440569107986
  0.3532483579056872  0.1639702153762512  0.1542459154897151
  0.6483881031553981  0.1658149448512590  0.1542211131240216
  0.7952575518614701  0.9181467988761935  0.1541706512936552
  0.7966624398930626  0.0820796734614006  0.1541733690593070
  0.9178382033477179  0.2032175381533709  0.1541613149388960
  0.8343781316298902  0.3516282099994484  0.1541989958729719
  0.2045587212359516  0.0818025383234989  0.1541842108899723
  0.0818407251628575  0.2046304067489293  0.1541663252178270
  0.1641873686144993  0.3531926252327585  0.1542181233713989
  0.0849857840597472  0.4998228015888404  0.1542027861015335
  0.1657737997557102  0.6484391149649379  0.1542144978324707
  0.3515899061509956  0.8343707728665890  0.1542423884540817
  0.2031442630362419  0.9178754578425327  0.1541898391897811
  0.0820417331183382  0.7967117721798153  0.1541702730624920
  0.6466779247886058  0.8357609981707058  0.1542218801248132
  0.8359894888771434  0.6466434262785971  0.1541888636312087
  0.9181654082188161  0.7953422860290553  0.1541562263706824
  0.5001141355547001  0.9151202179730140  0.1542433971031377
  0.9153251863178674  0.5001305155587085  0.1541979338037609
  0.6694434368986787  0.6691934974481182  0.1542534399832754
  0.3307370066217474  0.3304925788978329  0.1542899130916150
  0.6727040723970797  0.3274522424945641  0.1542389309059611
  0.3274301551117882  0.6727134008070678  0.1542664222135486
  0.5000495770394233  0.4999584184407256  0.1543521417838679
 
  0.00000000E+00  0.00000000E+00  0.00000000E+00
  0.00000000E+00  0.00000000E+00  0.00000000E+00
  0.00000000E+00  0.00000000E+00  0.00000000E+00
  0.00000000E+00  0.00000000E+00  0.00000000E+00
  0.00000000E+00  0.00000000E+00  0.00000000E+00
  0.00000000E+00  0.00000000E+00  0.00000000E+00
  0.00000000E+00  0.00000000E+00  0.00000000E+00
  0.00000000E+00  0.00000000E+00  0.00000000E+00
  0.00000000E+00  0.00000000E+00  0.00000000E+00
  0.00000000E+00  0.00000000E+00  0.00000000E+00
  0.00000000E+00  0.00000000E+00  0.00000000E+00
  0.00000000E+00  0.00000000E+00  0.00000000E+00
  0.00000000E+00  0.00000000E+00  0.00000000E+00
  0.00000000E+00  0.00000000E+00  0.00000000E+00
  0.00000000E+00  0.00000000E+00  0.00000000E+00
  0.00000000E+00  0.00000000E+00  0.00000000E+00
  0.00000000E+00  0.00000000E+00  0.00000000E+00
  0.00000000E+00  0.00000000E+00  0.00000000E+00
  0.00000000E+00  0.00000000E+00  0.00000000E+00
  0.00000000E+00  0.00000000E+00  0.00000000E+00
  0.00000000E+00  0.00000000E+00  0.00000000E+00
  0.00000000E+00  0.00000000E+00  0.00000000E+00
  0.00000000E+00  0.00000000E+00  0.00000000E+00
  0.00000000E+00  0.00000000E+00  0.00000000E+00
  0.00000000E+00  0.00000000E+00  0.00000000E+00
