 C  N Cr                                
   1.00000000000000     
     8.4931377652983056    0.0000000000000001    0.0000000000000000
    -0.0000000000000001    8.5006698191490404    0.0000000000000000
    -0.0000000000000002    0.0000000000000000   19.8713392818999957
   C    N    Cr
    22     2     1
Direct
  0.4981764638804032  0.0849543723820390  0.1543348941818249
  0.3499066313189283  0.1648938310498185  0.1543293205264926
  0.6449803298555211  0.1653980202449846  0.1542240613692417
  0.7952826313060376  0.9182403200443749  0.1541337867366265
  0.7952912254665444  0.0816998796212780  0.1541387905399981
  0.9181994969175392  0.2046210564161995  0.1541353278749160
  0.8376537805151264  0.3536789377010408  0.1541763037306610
  0.2031562479776846  0.0832321098432220  0.1542034708751349
  0.0829237179919888  0.2026034504124633  0.1541785722756825
  0.1680666095869064  0.3516157834551878  0.1543026091778082
  0.0898847212217286  0.4999737151977550  0.1543334344468999
  0.1680668792523466  0.6483317820697703  0.1543090037612317
  0.3499027753298560  0.8350606368936521  0.1543224333234281
  0.2031490385027170  0.9167175578154544  0.1542051111485691
  0.0829238708863199  0.7973403008018264  0.1541904627083164
  0.6449766125599605  0.8345474832409698  0.1542018308794975
  0.8376468255160157  0.6462591970520474  0.1541710972205911
  0.9181892298726670  0.7953155441373951  0.1541372899953929
  0.4981754714428731  0.9149985924975387  0.1543215848551879
  0.9203596216293687  0.4999696780047957  0.1542261088757556
  0.6688510877889092  0.3329279843178484  0.1541359422848650
  0.6688394466852134  0.6670104563817471  0.1541109913595007
  0.3277796864525598  0.3275686009104643  0.1543495294388288
  0.3277783604448006  0.6723827222266473  0.1543439529101702
  0.5001887975290936  0.4999709048696500  0.1538970993241720
 
  0.00000000E+00  0.00000000E+00  0.00000000E+00
  0.00000000E+00  0.00000000E+00  0.00000000E+00
  0.00000000E+00  0.00000000E+00  0.00000000E+00
  0.00000000E+00  0.00000000E+00  0.00000000E+00
  0.00000000E+00  0.00000000E+00  0.00000000E+00
  0.00000000E+00  0.00000000E+00  0.00000000E+00
  0.00000000E+00  0.00000000E+00  0.00000000E+00
  0.00000000E+00  0.00000000E+00  0.00000000E+00
  0.00000000E+00  0.00000000E+00  0.00000000E+00
  0.00000000E+00  0.00000000E+00  0.00000000E+00
  0.00000000E+00  0.00000000E+00  0.00000000E+00
  0.00000000E+00  0.00000000E+00  0.00000000E+00
  0.00000000E+00  0.00000000E+00  0.00000000E+00
  0.00000000E+00  0.00000000E+00  0.00000000E+00
  0.00000000E+00  0.00000000E+00  0.00000000E+00
  0.00000000E+00  0.00000000E+00  0.00000000E+00
  0.00000000E+00  0.00000000E+00  0.00000000E+00
  0.00000000E+00  0.00000000E+00  0.00000000E+00
  0.00000000E+00  0.00000000E+00  0.00000000E+00
  0.00000000E+00  0.00000000E+00  0.00000000E+00
  0.00000000E+00  0.00000000E+00  0.00000000E+00
  0.00000000E+00  0.00000000E+00  0.00000000E+00
  0.00000000E+00  0.00000000E+00  0.00000000E+00
  0.00000000E+00  0.00000000E+00  0.00000000E+00
  0.00000000E+00  0.00000000E+00  0.00000000E+00
