 C  N Ni                                
   1.00000000000000     
    12.4934427634841381    0.0000000000000000    0.0000000000000000
    -0.0000000000000004   12.7733519410830372    0.0000000000000000
     0.0000000000000003    0.0000000000000000   19.8713392819153718
   C    N    Ni
    56     2     1
Direct
  0.0522797560165723  0.0474547806717941  0.1594128486350315
  0.1522900147044610  0.1019052821115623  0.1593745392735245
  0.1512573290901735  0.2128303607201436  0.1592837809343032
  0.0520602112035839  0.2681449203814149  0.1592522807867234
  0.2532280816904745  0.0476967596682826  0.1594090775985846
  0.3529854257989392  0.1034038776649389  0.1594174685978042
  0.3518252445490562  0.2160917042733213  0.1593644308040585
  0.2509051092885265  0.2683183232226659  0.1592753215529431
  0.4529428616913138  0.0480310520595186  0.1594373885086278
  0.5516162998319939  0.1070215959659369  0.1594240031015288
  0.5516635740062554  0.2202175927819240  0.1594225677324264
  0.4499910802993287  0.2765507225885874  0.1593826928530395
  0.6512719883049120  0.0487068347985032  0.1594240479234945
  0.7516445778346253  0.1037070171406019  0.1593835263112151
  0.7522658472634977  0.2161717852590354  0.1593631313213243
  0.6532640972481210  0.2754135258395026  0.1593848511315721
  0.8513229520801378  0.0476185724788001  0.1593758181889712
  0.9522157280132381  0.1022588689193668  0.1593620707413021
  0.9524769025246194  0.2135042134934274  0.1593005897684328
  0.8528845220879184  0.2693685898568858  0.1593114392650241
  0.0522984493662815  0.3805880005320338  0.1592283218430781
  0.1503281491470560  0.4359804327399098  0.1592106631696827
  0.1500964454563270  0.5476166316801852  0.1592104939992160
  0.0519540656191445  0.6031506647970941  0.1592331985242154
  0.2488537006764988  0.3793222375005931  0.1592364952676169
  0.3466301638090703  0.4336750917771084  0.1592769188072719
  0.3466259576697991  0.5475409114192913  0.1592824260117002
  0.2489246895324508  0.6029351253456638  0.1592539215313231
  0.7576100523176332  0.4362076752009006  0.1593179777601002
  0.7576270036804267  0.5500461739125116  0.1593211531056364
  0.8553415078024791  0.3807995059168396  0.1592702438069444
  0.9541422643716262  0.4361265262204865  0.1592237259194035
  0.9538775806486677  0.5477712858437760  0.1592205169594686
  0.8553794251909351  0.6044338737323411  0.1592712112981677
  0.0523489027068729  0.7155753386421086  0.1592735303913089
  0.1519654133661607  0.7702299703381860  0.1593015647395187
  0.0522940023261539  0.9363006281187273  0.1594273080915745
  0.2515076841473694  0.7143568094612093  0.1593040204231363
  0.3521535598151770  0.7675663453502417  0.1593681276001225
  0.3528922714046119  0.8800401200997575  0.1594112337064325
  0.2532401827044302  0.9361245935538893  0.1594098724365999
  0.4511270214336617  0.7083485956773728  0.1593925173353799
  0.5527722089552844  0.7635489028006589  0.1594101310844751
  0.5529592330434508  0.8767492719324169  0.1594292952125124
  0.4533040509812813  0.9350315028024965  0.1594380160871879
  0.6544027904819445  0.7072038742324370  0.1593898114115415
  0.7526113446526901  0.7676526209909982  0.1593684737572136
  0.7515976093748645  0.8803430613438435  0.1594102455544154
  0.6516633984377614  0.9357301409474846  0.1594237367966408
  0.8534972125680933  0.7154305754632844  0.1593142287539339
  0.9531862797171820  0.7709344513940051  0.1593370319396792
  0.8513666553510186  0.9360468611489056  0.1594049254276553
  0.1523289309233420  0.8814697954477166  0.1593824519175091
  0.9522993645416488  0.8818440058195635  0.1593968102303652
  0.4465180381829326  0.5970308496166077  0.1593647130622856
  0.6577159410942713  0.3867398575715680  0.1593766231879054
  0.4438078453855187  0.3853749528414067  0.1593578668349162
  0.6604387052082790  0.5984093882688833  0.1593821002690562
  0.5521003842590119  0.4918869659297940  0.1593862796835323
 
  0.00000000E+00  0.00000000E+00  0.00000000E+00
  0.00000000E+00  0.00000000E+00  0.00000000E+00
  0.00000000E+00  0.00000000E+00  0.00000000E+00
  0.00000000E+00  0.00000000E+00  0.00000000E+00
  0.00000000E+00  0.00000000E+00  0.00000000E+00
  0.00000000E+00  0.00000000E+00  0.00000000E+00
  0.00000000E+00  0.00000000E+00  0.00000000E+00
  0.00000000E+00  0.00000000E+00  0.00000000E+00
  0.00000000E+00  0.00000000E+00  0.00000000E+00
  0.00000000E+00  0.00000000E+00  0.00000000E+00
  0.00000000E+00  0.00000000E+00  0.00000000E+00
  0.00000000E+00  0.00000000E+00  0.00000000E+00
  0.00000000E+00  0.00000000E+00  0.00000000E+00
  0.00000000E+00  0.00000000E+00  0.00000000E+00
  0.00000000E+00  0.00000000E+00  0.00000000E+00
  0.00000000E+00  0.00000000E+00  0.00000000E+00
  0.00000000E+00  0.00000000E+00  0.00000000E+00
  0.00000000E+00  0.00000000E+00  0.00000000E+00
  0.00000000E+00  0.00000000E+00  0.00000000E+00
  0.00000000E+00  0.00000000E+00  0.00000000E+00
  0.00000000E+00  0.00000000E+00  0.00000000E+00
  0.00000000E+00  0.00000000E+00  0.00000000E+00
  0.00000000E+00  0.00000000E+00  0.00000000E+00
  0.00000000E+00  0.00000000E+00  0.00000000E+00
  0.00000000E+00  0.00000000E+00  0.00000000E+00
  0.00000000E+00  0.00000000E+00  0.00000000E+00
  0.00000000E+00  0.00000000E+00  0.00000000E+00
  0.00000000E+00  0.00000000E+00  0.00000000E+00
  0.00000000E+00  0.00000000E+00  0.00000000E+00
  0.00000000E+00  0.00000000E+00  0.00000000E+00
  0.00000000E+00  0.00000000E+00  0.00000000E+00
  0.00000000E+00  0.00000000E+00  0.00000000E+00
  0.00000000E+00  0.00000000E+00  0.00000000E+00
  0.00000000E+00  0.00000000E+00  0.00000000E+00
  0.00000000E+00  0.00000000E+00  0.00000000E+00
  0.00000000E+00  0.00000000E+00  0.00000000E+00
  0.00000000E+00  0.00000000E+00  0.00000000E+00
  0.00000000E+00  0.00000000E+00  0.00000000E+00
  0.00000000E+00  0.00000000E+00  0.00000000E+00
  0.00000000E+00  0.00000000E+00  0.00000000E+00
  0.00000000E+00  0.00000000E+00  0.00000000E+00
  0.00000000E+00  0.00000000E+00  0.00000000E+00
  0.00000000E+00  0.00000000E+00  0.00000000E+00
  0.00000000E+00  0.00000000E+00  0.00000000E+00
  0.00000000E+00  0.00000000E+00  0.00000000E+00
  0.00000000E+00  0.00000000E+00  0.00000000E+00
  0.00000000E+00  0.00000000E+00  0.00000000E+00
  0.00000000E+00  0.00000000E+00  0.00000000E+00
  0.00000000E+00  0.00000000E+00  0.00000000E+00
  0.00000000E+00  0.00000000E+00  0.00000000E+00
  0.00000000E+00  0.00000000E+00  0.00000000E+00
  0.00000000E+00  0.00000000E+00  0.00000000E+00
  0.00000000E+00  0.00000000E+00  0.00000000E+00
  0.00000000E+00  0.00000000E+00  0.00000000E+00
  0.00000000E+00  0.00000000E+00  0.00000000E+00
  0.00000000E+00  0.00000000E+00  0.00000000E+00
  0.00000000E+00  0.00000000E+00  0.00000000E+00
  0.00000000E+00  0.00000000E+00  0.00000000E+00
  0.00000000E+00  0.00000000E+00  0.00000000E+00
