 C  N Ni                                
   1.00000000000000     
    12.5055162182315271    0.0000000000000000    0.0000000000000000
    -0.0000000000000004   12.7854803709542750    0.0000000000000000
     0.0000000000000003    0.0000000000000000   19.8713392819153718
   C    N    Ni
    57     1     1
Direct
  0.0521251003719188  0.0475949902670397  0.1594022128203688
  0.1523016267943893  0.1022237011020724  0.1593730025247167
  0.1518217522140433  0.2132907979774930  0.1592989239024877
  0.0521510430174058  0.2685730441734891  0.1592444984771928
  0.2529163989809762  0.0476838169205525  0.1594033895723753
  0.3529719756293018  0.1035491387949945  0.1594195216289103
  0.3524966509534690  0.2159085478303005  0.1593727578900257
  0.2512005006627703  0.2688171983973225  0.1592948732694379
  0.4528134721077116  0.0475736647811086  0.1594589612199973
  0.5522906983749524  0.1056515710262054  0.1594776919753381
  0.5522803627434465  0.2179958934244545  0.1594560156080834
  0.4515767890216260  0.2751373515708885  0.1593923062236704
  0.6517950283226546  0.0478506268225668  0.1594549957236633
  0.7518365839257626  0.1034328228569424  0.1594066698528417
  0.7522448909033074  0.2156729570054581  0.1593710157478801
  0.6535031049706991  0.2743703034538315  0.1593970564479485
  0.8515762226397985  0.0475855414818693  0.1593951370944086
  0.9520362295444345  0.1023993727553687  0.1593698320876070
  0.9522914038715480  0.2135532971719472  0.1592999520561662
  0.8529689427695399  0.2694284741011747  0.1592986011212628
  0.0517977781625388  0.3802643051327831  0.1592040479663571
  0.1499327443739605  0.4360770412480935  0.1591939140048708
  0.1495863345807324  0.5476182611666739  0.1591908941964346
  0.0517721940266134  0.6034898694540652  0.1592142510426947
  0.2483768939167499  0.3797884480533712  0.1592457808053504
  0.3454687571507534  0.4359667446856325  0.1592800671980289
  0.3445980657228099  0.5481746638726972  0.1592856686940130
  0.2478258091670257  0.6038948447837447  0.1592390547009347
  0.7572300012777955  0.4366185394400354  0.1592857583022307
  0.7578257852522371  0.5497376239600466  0.1592878254896068
  0.8549776641349417  0.3808466861297052  0.1592415405897647
  0.9538158545817838  0.4362044177815458  0.1591858481298408
  0.9537263670725894  0.5475021099546251  0.1591767419917522
  0.8556383283884269  0.6042818508451523  0.1592249803919034
  0.0521670462285279  0.7152180977601368  0.1592614625917239
  0.1518923326056438  0.7705957342664786  0.1593049949060610
  0.0522192527481881  0.9365929376662037  0.1594067744064092
  0.2509203819479375  0.7149107325587233  0.1593113163219200
  0.3522430974393505  0.7678899425480706  0.1593865171572405
  0.3526866682857113  0.8799110813527468  0.1594304231215451
  0.2529126566487557  0.9361635067821351  0.1594078445668547
  0.4509211228335084  0.7083691685446114  0.1593942988335125
  0.5528642750750311  0.7636838993967864  0.1594256296206885
  0.5529244620037480  0.8765581487902295  0.1594634674479550
  0.4530776848784485  0.9349151956985317  0.1594615655399030
  0.6551378950734746  0.7076441988681467  0.1593994370971468
  0.7528596672835255  0.7678547814167095  0.1593765317082486
  0.7517436928079420  0.8800970459404591  0.1594242241247846
  0.6519483779273285  0.9352684912527088  0.1594603091427002
  0.8538041815782513  0.7151578668019366  0.1593011948294583
  0.9529303285485032  0.7707327973622465  0.1593189092246759
  0.8516311561928176  0.9360273439162041  0.1594106132555856
  0.1521920450592359  0.8817092705239995  0.1593727178380046
  0.9521868128227309  0.8817064103925634  0.1593783373726816
  0.4472974948099715  0.3870317213677944  0.1593446637570874
  0.4458621148174627  0.5971402206848876  0.1593466367836771
  0.6568161118454500  0.3856663524547063  0.1593844314849246
  0.6609839904977748  0.5995951921648086  0.1593799833559846
  0.5521858844014428  0.4913813391818388  0.1593839862349802
 
  0.00000000E+00  0.00000000E+00  0.00000000E+00
  0.00000000E+00  0.00000000E+00  0.00000000E+00
  0.00000000E+00  0.00000000E+00  0.00000000E+00
  0.00000000E+00  0.00000000E+00  0.00000000E+00
  0.00000000E+00  0.00000000E+00  0.00000000E+00
  0.00000000E+00  0.00000000E+00  0.00000000E+00
  0.00000000E+00  0.00000000E+00  0.00000000E+00
  0.00000000E+00  0.00000000E+00  0.00000000E+00
  0.00000000E+00  0.00000000E+00  0.00000000E+00
  0.00000000E+00  0.00000000E+00  0.00000000E+00
  0.00000000E+00  0.00000000E+00  0.00000000E+00
  0.00000000E+00  0.00000000E+00  0.00000000E+00
  0.00000000E+00  0.00000000E+00  0.00000000E+00
  0.00000000E+00  0.00000000E+00  0.00000000E+00
  0.00000000E+00  0.00000000E+00  0.00000000E+00
  0.00000000E+00  0.00000000E+00  0.00000000E+00
  0.00000000E+00  0.00000000E+00  0.00000000E+00
  0.00000000E+00  0.00000000E+00  0.00000000E+00
  0.00000000E+00  0.00000000E+00  0.00000000E+00
  0.00000000E+00  0.00000000E+00  0.00000000E+00
  0.00000000E+00  0.00000000E+00  0.00000000E+00
  0.00000000E+00  0.00000000E+00  0.00000000E+00
  0.00000000E+00  0.00000000E+00  0.00000000E+00
  0.00000000E+00  0.00000000E+00  0.00000000E+00
  0.00000000E+00  0.00000000E+00  0.00000000E+00
  0.00000000E+00  0.00000000E+00  0.00000000E+00
  0.00000000E+00  0.00000000E+00  0.00000000E+00
  0.00000000E+00  0.00000000E+00  0.00000000E+00
  0.00000000E+00  0.00000000E+00  0.00000000E+00
  0.00000000E+00  0.00000000E+00  0.00000000E+00
  0.00000000E+00  0.00000000E+00  0.00000000E+00
  0.00000000E+00  0.00000000E+00  0.00000000E+00
  0.00000000E+00  0.00000000E+00  0.00000000E+00
  0.00000000E+00  0.00000000E+00  0.00000000E+00
  0.00000000E+00  0.00000000E+00  0.00000000E+00
  0.00000000E+00  0.00000000E+00  0.00000000E+00
  0.00000000E+00  0.00000000E+00  0.00000000E+00
  0.00000000E+00  0.00000000E+00  0.00000000E+00
  0.00000000E+00  0.00000000E+00  0.00000000E+00
  0.00000000E+00  0.00000000E+00  0.00000000E+00
  0.00000000E+00  0.00000000E+00  0.00000000E+00
  0.00000000E+00  0.00000000E+00  0.00000000E+00
  0.00000000E+00  0.00000000E+00  0.00000000E+00
  0.00000000E+00  0.00000000E+00  0.00000000E+00
  0.00000000E+00  0.00000000E+00  0.00000000E+00
  0.00000000E+00  0.00000000E+00  0.00000000E+00
  0.00000000E+00  0.00000000E+00  0.00000000E+00
  0.00000000E+00  0.00000000E+00  0.00000000E+00
  0.00000000E+00  0.00000000E+00  0.00000000E+00
  0.00000000E+00  0.00000000E+00  0.00000000E+00
  0.00000000E+00  0.00000000E+00  0.00000000E+00
  0.00000000E+00  0.00000000E+00  0.00000000E+00
  0.00000000E+00  0.00000000E+00  0.00000000E+00
  0.00000000E+00  0.00000000E+00  0.00000000E+00
  0.00000000E+00  0.00000000E+00  0.00000000E+00
  0.00000000E+00  0.00000000E+00  0.00000000E+00
  0.00000000E+00  0.00000000E+00  0.00000000E+00
  0.00000000E+00  0.00000000E+00  0.00000000E+00
  0.00000000E+00  0.00000000E+00  0.00000000E+00
