 C  N Fe                                
   1.00000000000000     
     8.4748927549608677    0.0000000000000001    0.0000000000000000
    -0.0000000000000001    8.4749497369728477    0.0000000000000000
    -0.0000000000000002    0.0000000000000000   19.8713392818999957
   C    N    Fe
    23     1     1
Direct
  0.5011033045364852  0.0814928841956566  0.1542907926479995
  0.3557552590589776  0.1654231144259999  0.1542755322446551
  0.6459180523557726  0.1637111392216320  0.1542312353832937
  0.7968003573287957  0.9176470708337013  0.1540257417673669
  0.7953353761343156  0.0825513419454160  0.1540225839435502
  0.9177106516943936  0.2055588385390064  0.1540142569202828
  0.8318581783451281  0.3552332626104112  0.1542094519975383
  0.2054918419127543  0.0820731191224705  0.1540592273339207
  0.0821082972513784  0.2054565924188062  0.1540316286362099
  0.1654758563314181  0.3557089331107740  0.1542450200426888
  0.0815362560105733  0.5010747417242944  0.1542616613720569
  0.1637721695792939  0.6458678938063332  0.1542501599264358
  0.3552702261535333  0.8318323758978969  0.1542763717471459
  0.2055973447818133  0.9176594107376198  0.1540691780542612
  0.0825942700710704  0.7952936323621570  0.1540519115717168
  0.6485755492482282  0.8330263707351715  0.1542255209084069
  0.8330604896361941  0.6485278827690650  0.1542103614646118
  0.9176929840894498  0.7967495465424288  0.1540270969489906
  0.5010209554402596  0.9125480435751082  0.1542770576989219
  0.9125776369062021  0.5009704241984830  0.1542294025387899
  0.6647435161321379  0.3321665246677816  0.1543771593045805
  0.3344762449251106  0.3344391130231296  0.1544178670861545
  0.3322097704810842  0.6647119770384906  0.1544181100496592
  0.6709824298557593  0.6709514620232905  0.1543373401393675
  0.4986825416709799  0.4986372220630467  0.1545783400921880
 
  0.00000000E+00  0.00000000E+00  0.00000000E+00
  0.00000000E+00  0.00000000E+00  0.00000000E+00
  0.00000000E+00  0.00000000E+00  0.00000000E+00
  0.00000000E+00  0.00000000E+00  0.00000000E+00
  0.00000000E+00  0.00000000E+00  0.00000000E+00
  0.00000000E+00  0.00000000E+00  0.00000000E+00
  0.00000000E+00  0.00000000E+00  0.00000000E+00
  0.00000000E+00  0.00000000E+00  0.00000000E+00
  0.00000000E+00  0.00000000E+00  0.00000000E+00
  0.00000000E+00  0.00000000E+00  0.00000000E+00
  0.00000000E+00  0.00000000E+00  0.00000000E+00
  0.00000000E+00  0.00000000E+00  0.00000000E+00
  0.00000000E+00  0.00000000E+00  0.00000000E+00
  0.00000000E+00  0.00000000E+00  0.00000000E+00
  0.00000000E+00  0.00000000E+00  0.00000000E+00
  0.00000000E+00  0.00000000E+00  0.00000000E+00
  0.00000000E+00  0.00000000E+00  0.00000000E+00
  0.00000000E+00  0.00000000E+00  0.00000000E+00
  0.00000000E+00  0.00000000E+00  0.00000000E+00
  0.00000000E+00  0.00000000E+00  0.00000000E+00
  0.00000000E+00  0.00000000E+00  0.00000000E+00
  0.00000000E+00  0.00000000E+00  0.00000000E+00
  0.00000000E+00  0.00000000E+00  0.00000000E+00
  0.00000000E+00  0.00000000E+00  0.00000000E+00
  0.00000000E+00  0.00000000E+00  0.00000000E+00
