 C  N  H Fe                             
   1.00000000000000     
    26.3296677563176900    0.0000000000000000    0.0000000000000000
     0.0000000000000000   26.3326448632991656    0.0000000000000000
     0.0000000000000000    0.0000000000000000   25.0000000000000000
   C    N    H    Fe
    60     8    32     1
Direct
  0.2523192358289507  0.1972457546530919  0.2005599726626831
  0.2039151745315822  0.1716104648459417  0.1994079438550956
  0.1671299587226962  0.2082728035012765  0.1994086600391352
  0.1928683630468964  0.2566919101445586  0.2005477139289880
  0.3463141209463036  0.1972516855647999  0.1994531910435605
  0.3947101033601915  0.1716437334736424  0.2005603178365351
  0.4057534206566931  0.2567283219318351  0.1994851940883521
  0.4314951087490108  0.2083365292363041  0.2005704736403046
  0.2523010664491888  0.4101541002753483  0.1994657719684213
  0.1928804107534886  0.3506355196903913  0.1995004905703668
  0.2038854266690010  0.4357242513955355  0.2005533880868341
  0.1671173102692068  0.3990110687806309  0.2005749136182755
  0.4057211921830048  0.3506686197903693  0.2005261571726161
  0.4314765949652140  0.3990706008306760  0.1994275828843777
  0.3462884484914814  0.4101724806049334  0.2005659715623037
  0.3947191045152317  0.4357617441284979  0.1994450058863163
  0.2993068523161769  0.4354825462564536  0.2000275194065897
  0.1675043220278066  0.3036463612682881  0.2000375118557202
  0.2993008682083000  0.1719680378774478  0.2000120312702632
  0.2992585444085389  0.1151596730292884  0.1999853815834534
  0.3194529495312506  0.0875831743720182  0.1563913373169522
  0.2789502616577552  0.0875455581023536  0.2434991714842161
  0.3197771306820215  0.0346039801310412  0.1560290276866399
  0.2787256587968353  0.0345644543071526  0.2438518699753103
  0.2993432208324749  0.0074909318398735  0.1999742983026876
  0.4311157229672658  0.3037204952940012  0.2000127479741038
  0.2993391908385440  0.4923275645369828  0.2000219733886597
  0.4878744105666785  0.3037544203942494  0.2000077747734326
  0.1107580764337808  0.3036180557481998  0.2000082284832393
  0.2791437201018686  0.5199485277498375  0.1564435212111660
  0.5154736940434504  0.2835945252580399  0.1563993251973488
  0.0831979073444929  0.3238155423526779  0.1563960655243377
  0.3196340025781290  0.5199619116361128  0.2435433246595965
  0.5154885745554429  0.3239853022517757  0.2435732979199409
  0.0831200488102912  0.2833699077034191  0.2435418247078918
  0.2788941360769991  0.5729344566087382  0.1560593355321210
  0.5684507737005281  0.2833168422702413  0.1560326742804974
  0.0302209010492283  0.3241838092339932  0.1560205500939895
  0.3199074106883716  0.5729501129747001  0.2438873820172959
  0.5684682755314513  0.3242355525962369  0.2439390920701932
  0.0301399728732774  0.2831998341382870  0.2438913869278123
  0.2993735028504502  0.6000380627527910  0.1999824265809030
  0.5955356196293495  0.3037304722331562  0.2000032646197824
  0.0030908547306626  0.3037797338146013  0.1999738602624318
  0.6930404003257217  0.3035950342751402  0.2000116969231689
  0.9055732182727944  0.3037866902124111  0.2000118425992233
  0.2993000405258331  0.6975415028910366  0.2000162446811508
  0.2994719173354159  0.9099899372394125  0.2000362464886920
  0.7446522119912067  0.3035992652890512  0.1999850728329824
  0.7734262757064719  0.2561894431431457  0.1997982850955645
  0.7733283418285012  0.3510690383910829  0.2001479763415244
  0.8252697285238776  0.2562471157997305  0.2002418242839431
  0.8251680033336084  0.3511202623497235  0.1997119219212364
  0.8539533968207879  0.3037164681541457  0.1999982065363684
  0.2993302314544141  0.7491157034754456  0.1999984010575596
  0.3468234716546153  0.7778114266874571  0.2001763152285284
  0.2518972041295560  0.7779051847068766  0.1997745333446070
  0.3468760553097369  0.8296254552899833  0.1997153362626873
  0.2519508461660449  0.8297194638405218  0.2002356863494546
  0.2994435623668328  0.8584153293532192  0.1999998230624667
  0.2454239161014628  0.2498865203495789  0.2008723211169929
  0.2454322654379080  0.3574981412439863  0.1991761124487041
  0.3532018138867065  0.2498953535734462  0.1991457085432286
  0.3531639563173400  0.3575112517126801  0.2008605370302375
  0.6474768164086524  0.3036800956991156  0.2000029558553499
  0.9511420831890652  0.3038506312846470  0.1999673805389598
  0.2993490018593116  0.6519757071603911  0.1999648790514658
  0.2994460406980065  0.9555551056144278  0.1999987872279113
  0.1984471378087798  0.1307537081408623  0.1982913712834149
  0.1262743512434371  0.2028084163505505  0.1983041485675859
  0.4002097346123143  0.1307897909171431  0.2016329659605972
  0.4723529592967360  0.2028925309530781  0.2016330090241840
  0.1983886574993133  0.4765782316201214  0.2016107166280541
  0.1262503331681598  0.4043926747659714  0.2016400148279258
  0.4723377808046716  0.4044744451327794  0.1983278593615981
  0.4002367190983749  0.4766110773986688  0.1983338665742277
  0.3343566657393024  0.1083262763079234  0.1219682819723079
  0.2638065028273299  0.1082474114962983  0.2778352811351107
  0.3349779179611018  0.0135802259880681  0.1219648955086699
  0.2634385879433397  0.0135035393474794  0.2778474101263527
  0.2641969390847851  0.4992456217423016  0.1220155707015592
  0.4947166315970959  0.2686490260590166  0.1219978372775113
  0.1040082353157575  0.3387066641905424  0.1220016281987697
  0.3347373275876930  0.4992839402161445  0.2779141835321238
  0.4947482925684428  0.3390832947269526  0.2779130016554861
  0.1038419590192761  0.2682074290633705  0.2778650207066508
  0.2637347534054465  0.5939973449330475  0.1219977019388828
  0.5895405898758046  0.2681742416659621  0.1219849710006376
  0.0091846826027039  0.3394023213614606  0.1219747674372497
  0.3351586051454879  0.5940260012411162  0.2778945675533730
  0.5895691964054605  0.3394795994432446  0.2779308784274320
  0.0090300477864037  0.2679746272961513  0.2778821462797345
  0.7527859738845071  0.2202054604369339  0.1997903255151151
  0.7526108713325064  0.3870079227451085  0.2000951825467458
  0.8459884901535284  0.2203104779507024  0.2002842074651250
  0.8458116869524460  0.3870977138785280  0.1996071405011181
  0.3827731227302216  0.7571056994819995  0.2001560358859315
  0.2159087151334393  0.7572678864900506  0.1997094116534498
  0.3828671652495093  0.8502577688556913  0.1996350401103519
  0.2160040257654187  0.8504292667315451  0.2002293122926355
  0.2993039100673816  0.3037048010913760  0.2000187747774752
 
  0.00000000E+00  0.00000000E+00  0.00000000E+00
  0.00000000E+00  0.00000000E+00  0.00000000E+00
  0.00000000E+00  0.00000000E+00  0.00000000E+00
  0.00000000E+00  0.00000000E+00  0.00000000E+00
  0.00000000E+00  0.00000000E+00  0.00000000E+00
  0.00000000E+00  0.00000000E+00  0.00000000E+00
  0.00000000E+00  0.00000000E+00  0.00000000E+00
  0.00000000E+00  0.00000000E+00  0.00000000E+00
  0.00000000E+00  0.00000000E+00  0.00000000E+00
  0.00000000E+00  0.00000000E+00  0.00000000E+00
  0.00000000E+00  0.00000000E+00  0.00000000E+00
  0.00000000E+00  0.00000000E+00  0.00000000E+00
  0.00000000E+00  0.00000000E+00  0.00000000E+00
  0.00000000E+00  0.00000000E+00  0.00000000E+00
  0.00000000E+00  0.00000000E+00  0.00000000E+00
  0.00000000E+00  0.00000000E+00  0.00000000E+00
  0.00000000E+00  0.00000000E+00  0.00000000E+00
  0.00000000E+00  0.00000000E+00  0.00000000E+00
  0.00000000E+00  0.00000000E+00  0.00000000E+00
  0.00000000E+00  0.00000000E+00  0.00000000E+00
  0.00000000E+00  0.00000000E+00  0.00000000E+00
  0.00000000E+00  0.00000000E+00  0.00000000E+00
  0.00000000E+00  0.00000000E+00  0.00000000E+00
  0.00000000E+00  0.00000000E+00  0.00000000E+00
  0.00000000E+00  0.00000000E+00  0.00000000E+00
  0.00000000E+00  0.00000000E+00  0.00000000E+00
  0.00000000E+00  0.00000000E+00  0.00000000E+00
  0.00000000E+00  0.00000000E+00  0.00000000E+00
  0.00000000E+00  0.00000000E+00  0.00000000E+00
  0.00000000E+00  0.00000000E+00  0.00000000E+00
  0.00000000E+00  0.00000000E+00  0.00000000E+00
  0.00000000E+00  0.00000000E+00  0.00000000E+00
  0.00000000E+00  0.00000000E+00  0.00000000E+00
  0.00000000E+00  0.00000000E+00  0.00000000E+00
  0.00000000E+00  0.00000000E+00  0.00000000E+00
  0.00000000E+00  0.00000000E+00  0.00000000E+00
  0.00000000E+00  0.00000000E+00  0.00000000E+00
  0.00000000E+00  0.00000000E+00  0.00000000E+00
  0.00000000E+00  0.00000000E+00  0.00000000E+00
  0.00000000E+00  0.00000000E+00  0.00000000E+00
  0.00000000E+00  0.00000000E+00  0.00000000E+00
  0.00000000E+00  0.00000000E+00  0.00000000E+00
  0.00000000E+00  0.00000000E+00  0.00000000E+00
  0.00000000E+00  0.00000000E+00  0.00000000E+00
  0.00000000E+00  0.00000000E+00  0.00000000E+00
  0.00000000E+00  0.00000000E+00  0.00000000E+00
  0.00000000E+00  0.00000000E+00  0.00000000E+00
  0.00000000E+00  0.00000000E+00  0.00000000E+00
  0.00000000E+00  0.00000000E+00  0.00000000E+00
  0.00000000E+00  0.00000000E+00  0.00000000E+00
  0.00000000E+00  0.00000000E+00  0.00000000E+00
  0.00000000E+00  0.00000000E+00  0.00000000E+00
  0.00000000E+00  0.00000000E+00  0.00000000E+00
  0.00000000E+00  0.00000000E+00  0.00000000E+00
  0.00000000E+00  0.00000000E+00  0.00000000E+00
  0.00000000E+00  0.00000000E+00  0.00000000E+00
  0.00000000E+00  0.00000000E+00  0.00000000E+00
  0.00000000E+00  0.00000000E+00  0.00000000E+00
  0.00000000E+00  0.00000000E+00  0.00000000E+00
  0.00000000E+00  0.00000000E+00  0.00000000E+00
  0.00000000E+00  0.00000000E+00  0.00000000E+00
  0.00000000E+00  0.00000000E+00  0.00000000E+00
  0.00000000E+00  0.00000000E+00  0.00000000E+00
  0.00000000E+00  0.00000000E+00  0.00000000E+00
  0.00000000E+00  0.00000000E+00  0.00000000E+00
  0.00000000E+00  0.00000000E+00  0.00000000E+00
  0.00000000E+00  0.00000000E+00  0.00000000E+00
  0.00000000E+00  0.00000000E+00  0.00000000E+00
  0.00000000E+00  0.00000000E+00  0.00000000E+00
  0.00000000E+00  0.00000000E+00  0.00000000E+00
  0.00000000E+00  0.00000000E+00  0.00000000E+00
  0.00000000E+00  0.00000000E+00  0.00000000E+00
  0.00000000E+00  0.00000000E+00  0.00000000E+00
  0.00000000E+00  0.00000000E+00  0.00000000E+00
  0.00000000E+00  0.00000000E+00  0.00000000E+00
  0.00000000E+00  0.00000000E+00  0.00000000E+00
  0.00000000E+00  0.00000000E+00  0.00000000E+00
  0.00000000E+00  0.00000000E+00  0.00000000E+00
  0.00000000E+00  0.00000000E+00  0.00000000E+00
  0.00000000E+00  0.00000000E+00  0.00000000E+00
  0.00000000E+00  0.00000000E+00  0.00000000E+00
  0.00000000E+00  0.00000000E+00  0.00000000E+00
  0.00000000E+00  0.00000000E+00  0.00000000E+00
  0.00000000E+00  0.00000000E+00  0.00000000E+00
  0.00000000E+00  0.00000000E+00  0.00000000E+00
  0.00000000E+00  0.00000000E+00  0.00000000E+00
  0.00000000E+00  0.00000000E+00  0.00000000E+00
  0.00000000E+00  0.00000000E+00  0.00000000E+00
  0.00000000E+00  0.00000000E+00  0.00000000E+00
  0.00000000E+00  0.00000000E+00  0.00000000E+00
  0.00000000E+00  0.00000000E+00  0.00000000E+00
  0.00000000E+00  0.00000000E+00  0.00000000E+00
  0.00000000E+00  0.00000000E+00  0.00000000E+00
  0.00000000E+00  0.00000000E+00  0.00000000E+00
  0.00000000E+00  0.00000000E+00  0.00000000E+00
  0.00000000E+00  0.00000000E+00  0.00000000E+00
  0.00000000E+00  0.00000000E+00  0.00000000E+00
  0.00000000E+00  0.00000000E+00  0.00000000E+00
  0.00000000E+00  0.00000000E+00  0.00000000E+00
  0.00000000E+00  0.00000000E+00  0.00000000E+00
  0.00000000E+00  0.00000000E+00  0.00000000E+00
