 C  N Mn                                
   1.00000000000000     
     8.5083220514834643    0.0000000000000001    0.0000000000000000
    -0.0000000000000001    8.5082234397886651    0.0000000000000000
    -0.0000000000000002    0.0000000000000000   19.8713392818999957
   C    N    Mn
    23     1     1
Direct
  0.5014691362974298  0.0816036639682568  0.1542837111046941
  0.3546301790779414  0.1643758560652512  0.1542645092859711
  0.6470349404967995  0.1628156025109951  0.1542360783803127
  0.7973122903012013  0.9175788662926734  0.1540344168215141
  0.7958298954882651  0.0818026731735548  0.1540404703485036
  0.9181604184131329  0.2041416610016872  0.1540313866638836
  0.8328804740514093  0.3545815135453818  0.1542058193458319
  0.2042563912349679  0.0809271678848040  0.1540673911472897
  0.0810166167490161  0.2042227387140481  0.1540384550294831
  0.1644174853487871  0.3545868683667209  0.1542277540147262
  0.0816527664831942  0.5014200465655998  0.1542414204688489
  0.1628612215691729  0.6469951853794956  0.1542432271988275
  0.3546286119209126  0.8328393921488561  0.1542719930329772
  0.2041837871807082  0.9181685007430515  0.1540840940897806
  0.0818370257916314  0.7957795191118265  0.1540640194109256
  0.6490933341695350  0.8337240900746472  0.1542035989204616
  0.8337651205221269  0.6490555724946314  0.1541852396392124
  0.9176255425464053  0.7972688422920325  0.1540327933236499
  0.5013648342181405  0.9129901877571017  0.1542627430391358
  0.9130195805055499  0.5013274092161056  0.1542081939254519
  0.6683582951611526  0.3306320155074281  0.1543829711540660
  0.3310616739200823  0.3310285437089847  0.1544127924220810
  0.3306684920923076  0.6683066394098157  0.1544173379591184
  0.6725774423387860  0.6725387719481156  0.1543130691277738
  0.5006440040524545  0.5006015897071059  0.1546595239662731
 
  0.00000000E+00  0.00000000E+00  0.00000000E+00
  0.00000000E+00  0.00000000E+00  0.00000000E+00
  0.00000000E+00  0.00000000E+00  0.00000000E+00
  0.00000000E+00  0.00000000E+00  0.00000000E+00
  0.00000000E+00  0.00000000E+00  0.00000000E+00
  0.00000000E+00  0.00000000E+00  0.00000000E+00
  0.00000000E+00  0.00000000E+00  0.00000000E+00
  0.00000000E+00  0.00000000E+00  0.00000000E+00
  0.00000000E+00  0.00000000E+00  0.00000000E+00
  0.00000000E+00  0.00000000E+00  0.00000000E+00
  0.00000000E+00  0.00000000E+00  0.00000000E+00
  0.00000000E+00  0.00000000E+00  0.00000000E+00
  0.00000000E+00  0.00000000E+00  0.00000000E+00
  0.00000000E+00  0.00000000E+00  0.00000000E+00
  0.00000000E+00  0.00000000E+00  0.00000000E+00
  0.00000000E+00  0.00000000E+00  0.00000000E+00
  0.00000000E+00  0.00000000E+00  0.00000000E+00
  0.00000000E+00  0.00000000E+00  0.00000000E+00
  0.00000000E+00  0.00000000E+00  0.00000000E+00
  0.00000000E+00  0.00000000E+00  0.00000000E+00
  0.00000000E+00  0.00000000E+00  0.00000000E+00
  0.00000000E+00  0.00000000E+00  0.00000000E+00
  0.00000000E+00  0.00000000E+00  0.00000000E+00
  0.00000000E+00  0.00000000E+00  0.00000000E+00
  0.00000000E+00  0.00000000E+00  0.00000000E+00
