 C  N Co                                
   1.00000000000000     
    12.5054238272809428    0.0000000000000000    0.0000000000000000
    -0.0000000000000004   12.7734404850138201    0.0000000000000000
     0.0000000000000003    0.0000000000000000   19.8713392819153718
   C    N    Co
    56     2     1
Direct
  0.0523784644164919  0.0474103486823928  0.1594091853310396
  0.1524179104368937  0.1019813851977644  0.1593734989574988
  0.1514558173410122  0.2128855421287586  0.1592890079028221
  0.0520679932744343  0.2683104282212773  0.1592520938451699
  0.2532611265241889  0.0477996223253279  0.1594065428761502
  0.3530983715653618  0.1035209249839724  0.1594222965153139
  0.3519283868494095  0.2160864388829902  0.1593762057166040
  0.2508660327889992  0.2683723054113197  0.1592853671550307
  0.4531073503752197  0.0480282874196583  0.1594399328843019
  0.5517727874837719  0.1068959351928322  0.1594412780221948
  0.5517509293398020  0.2201250850518073  0.1594436633966098
  0.4499966480956646  0.2764183568012826  0.1593980100085025
  0.6513819363876947  0.0486139434488452  0.1594352054805941
  0.7518572979336116  0.1035103218455803  0.1593964258715898
  0.7523482670614667  0.2158377346404782  0.1593792988546754
  0.6535533493695669  0.2749446530160531  0.1594052561322062
  0.8515265363350313  0.0474972919813004  0.1593853673991195
  0.9523134786451219  0.1021913444155311  0.1593691189894390
  0.9524961660507458  0.2134611413342668  0.1593074262598815
  0.8530207580913396  0.2693162317000803  0.1593115353323523
  0.0522640512072575  0.3804832724944371  0.1592211405803987
  0.1501736828998649  0.4360310185643519  0.1592070753533727
  0.1498163999428122  0.5475934216675296  0.1591988470412638
  0.0517588205404404  0.6032683296453655  0.1592234514507893
  0.2485794464665092  0.3794819555982393  0.1592430812264716
  0.3460582915155974  0.4340330365779531  0.1592856881810708
  0.3459948721031258  0.5474026953682660  0.1592855908089590
  0.2484127235506146  0.6029135395889366  0.1592533655826434
  0.7580429122350418  0.4363307677358919  0.1593081395290752
  0.7579579739730603  0.5497249537796778  0.1593087064612102
  0.8556181714569421  0.3807980337187781  0.1592674435697199
  0.9541856482162757  0.4361538158576849  0.1592094589103931
  0.9538040113393719  0.5477311545502155  0.1592033271457066
  0.8554371761231427  0.6043050401263659  0.1592615816888085
  0.0522947476294544  0.7154238003004016  0.1592732160389751
  0.1519700317101171  0.7702803526074555  0.1593021422767224
  0.0524289371340435  0.9363540994692321  0.1594143905098554
  0.2513458112066625  0.7144024306879889  0.1593079414221884
  0.3521181027536550  0.7678589879232665  0.1593766745621728
  0.3528552741562387  0.8801960288594538  0.1594101473170416
  0.2532454916975052  0.9362259276506044  0.1594031151512597
  0.4508504842491645  0.7087664612351997  0.1593808636164911
  0.5527282491926376  0.7636429571917325  0.1594051478517207
  0.5529719725504769  0.8768680525880689  0.1594352893599618
  0.4533866417216106  0.9351131483271933  0.1594376532103204
  0.6543865775710398  0.7074065881009594  0.1593847602874843
  0.7525471755379467  0.7677042134854581  0.1593739038513012
  0.7516629374215775  0.8802459846480100  0.1594083952180153
  0.6516899421857110  0.9357137173196305  0.1594311602706128
  0.8535135532332140  0.7153887920711233  0.1593136018100027
  0.9530250726758779  0.7708708230155471  0.1593344189703134
  0.8515480206472669  0.9359443650704462  0.1594020090676654
  0.1524160339120201  0.8815453868260392  0.1593752875107707
  0.9523683273678818  0.8817668008081068  0.1593826459814497
  0.4460130601323851  0.5973494612094260  0.1593480852861291
  0.6580378618260814  0.3863671213996007  0.1593845152522408
  0.4438027714702570  0.3854495931971527  0.1593715641907005
  0.6602732294414098  0.5983654360089361  0.1593678149016479
  0.5519959925190377  0.4918711083522668  0.1593517005926336
 
  0.00000000E+00  0.00000000E+00  0.00000000E+00
  0.00000000E+00  0.00000000E+00  0.00000000E+00
  0.00000000E+00  0.00000000E+00  0.00000000E+00
  0.00000000E+00  0.00000000E+00  0.00000000E+00
  0.00000000E+00  0.00000000E+00  0.00000000E+00
  0.00000000E+00  0.00000000E+00  0.00000000E+00
  0.00000000E+00  0.00000000E+00  0.00000000E+00
  0.00000000E+00  0.00000000E+00  0.00000000E+00
  0.00000000E+00  0.00000000E+00  0.00000000E+00
  0.00000000E+00  0.00000000E+00  0.00000000E+00
  0.00000000E+00  0.00000000E+00  0.00000000E+00
  0.00000000E+00  0.00000000E+00  0.00000000E+00
  0.00000000E+00  0.00000000E+00  0.00000000E+00
  0.00000000E+00  0.00000000E+00  0.00000000E+00
  0.00000000E+00  0.00000000E+00  0.00000000E+00
  0.00000000E+00  0.00000000E+00  0.00000000E+00
  0.00000000E+00  0.00000000E+00  0.00000000E+00
  0.00000000E+00  0.00000000E+00  0.00000000E+00
  0.00000000E+00  0.00000000E+00  0.00000000E+00
  0.00000000E+00  0.00000000E+00  0.00000000E+00
  0.00000000E+00  0.00000000E+00  0.00000000E+00
  0.00000000E+00  0.00000000E+00  0.00000000E+00
  0.00000000E+00  0.00000000E+00  0.00000000E+00
  0.00000000E+00  0.00000000E+00  0.00000000E+00
  0.00000000E+00  0.00000000E+00  0.00000000E+00
  0.00000000E+00  0.00000000E+00  0.00000000E+00
  0.00000000E+00  0.00000000E+00  0.00000000E+00
  0.00000000E+00  0.00000000E+00  0.00000000E+00
  0.00000000E+00  0.00000000E+00  0.00000000E+00
  0.00000000E+00  0.00000000E+00  0.00000000E+00
  0.00000000E+00  0.00000000E+00  0.00000000E+00
  0.00000000E+00  0.00000000E+00  0.00000000E+00
  0.00000000E+00  0.00000000E+00  0.00000000E+00
  0.00000000E+00  0.00000000E+00  0.00000000E+00
  0.00000000E+00  0.00000000E+00  0.00000000E+00
  0.00000000E+00  0.00000000E+00  0.00000000E+00
  0.00000000E+00  0.00000000E+00  0.00000000E+00
  0.00000000E+00  0.00000000E+00  0.00000000E+00
  0.00000000E+00  0.00000000E+00  0.00000000E+00
  0.00000000E+00  0.00000000E+00  0.00000000E+00
  0.00000000E+00  0.00000000E+00  0.00000000E+00
  0.00000000E+00  0.00000000E+00  0.00000000E+00
  0.00000000E+00  0.00000000E+00  0.00000000E+00
  0.00000000E+00  0.00000000E+00  0.00000000E+00
  0.00000000E+00  0.00000000E+00  0.00000000E+00
  0.00000000E+00  0.00000000E+00  0.00000000E+00
  0.00000000E+00  0.00000000E+00  0.00000000E+00
  0.00000000E+00  0.00000000E+00  0.00000000E+00
  0.00000000E+00  0.00000000E+00  0.00000000E+00
  0.00000000E+00  0.00000000E+00  0.00000000E+00
  0.00000000E+00  0.00000000E+00  0.00000000E+00
  0.00000000E+00  0.00000000E+00  0.00000000E+00
  0.00000000E+00  0.00000000E+00  0.00000000E+00
  0.00000000E+00  0.00000000E+00  0.00000000E+00
  0.00000000E+00  0.00000000E+00  0.00000000E+00
  0.00000000E+00  0.00000000E+00  0.00000000E+00
  0.00000000E+00  0.00000000E+00  0.00000000E+00
  0.00000000E+00  0.00000000E+00  0.00000000E+00
  0.00000000E+00  0.00000000E+00  0.00000000E+00
