 C  N Ni                                
   1.00000000000000     
    12.4687581380920882    0.0000000000000000    0.0000000000000000
    -0.0000000000000004   12.7531329999520562    0.0000000000000000
     0.0000000000000003    0.0000000000000000   19.8713392819153718
   C    N    Ni
    55     3     1
Direct
  0.0521200994564902  0.0476318705247293  0.1593932149320520
  0.1525662508165934  0.1023829240302325  0.1593767619687373
  0.1520826104147683  0.2137455655880018  0.1593066727243377
  0.0522551744757365  0.2686064911890179  0.1592443681281749
  0.2533170008678042  0.0478089114890441  0.1594129844332355
  0.3534495133738308  0.1039094149378132  0.1594375717374512
  0.3529198338430522  0.2166475058210550  0.1593713043560401
  0.2516864903023484  0.2696482906316325  0.1593024797692622
  0.4534703649795553  0.0483299451562141  0.1594599063542377
  0.5528775075039429  0.1068118209650184  0.1594446024298488
  0.5529944147244840  0.2199849707128267  0.1594171234571860
  0.4520700696900712  0.2761001805750400  0.1593819033949702
  0.6513548580527504  0.0479164608245526  0.1594587542946498
  0.7510158564244103  0.1038188786748448  0.1594297884454194
  0.7519563813255120  0.2166407942651607  0.1593705226930291
  0.6538355972750325  0.2766985136334490  0.1593841469197955
  0.8510805173591007  0.0478745310946528  0.1594035965853230
  0.9518210961916177  0.1023362824564541  0.1593730014122187
  0.9523836430817955  0.2136225949301996  0.1593010677830789
  0.8531128810601266  0.2692966001385840  0.1593032664080484
  0.0517534719623468  0.3803782146834364  0.1591904644769974
  0.1500972710234190  0.4361836848500624  0.1591839713548385
  0.1501225567514934  0.5476229937246364  0.1591825991175328
  0.0521298793790552  0.6033516421750568  0.1592036556134659
  0.2491254325290747  0.3809319922293068  0.1592421590808332
  0.3467552739474445  0.4371548842754385  0.1592730356148482
  0.3461170169396204  0.5494223331595356  0.1592862790990158
  0.2488208268858035  0.6041272764700051  0.1592572903922180
  0.7561455611814369  0.4355178630516632  0.1592959816593512
  0.7568081705271521  0.5485248753975857  0.1592908760870454
  0.8542943260222372  0.3807303031002493  0.1592577099697962
  0.9534745499399955  0.4362887198373711  0.1591780014708184
  0.9537793926909247  0.5474298371710268  0.1591738771498802
  0.8550835429526761  0.6030256657520223  0.1592511639683762
  0.0521536374382823  0.7151555391127000  0.1592606806979658
  0.1517600553769633  0.7705844952401422  0.1593086938471278
  0.0521221900340154  0.9364776540461995  0.1593936316388062
  0.2509597076814374  0.7150525682347957  0.1593158300365837
  0.3524360916771335  0.7670335678126267  0.1593817383180207
  0.3534461927324279  0.8796792517373646  0.1594349575587891
  0.2533723726479641  0.9358875143348903  0.1594129515806498
  0.4503684939759452  0.7060189727937787  0.1593973097380801
  0.5522769444312514  0.7615531795734579  0.1594511400556442
  0.5521884972031931  0.8756210568071470  0.1594863461531779
  0.4535329818927071  0.9349147786083605  0.1594731849873476
  0.6544660362765535  0.7065197651395840  0.1593955883085013
  0.7523430048062980  0.7671486140203647  0.1593724309907767
  0.7511884478611324  0.8796849034571249  0.1594267058876100
  0.6511912268976282  0.9346714655303613  0.1594759404916607
  0.8532807613561419  0.7143595689670326  0.1593050567042498
  0.9525431408048294  0.7702063285817480  0.1593045310664386
  0.8511608900789309  0.9359368415920768  0.1594016475964857
  0.1524342332869635  0.8817171326306302  0.1593693440834768
  0.9518960216343306  0.8815505201901699  0.1593631774521748
  0.4475024192181020  0.3876307895302402  0.1593346204375533
  0.4442671353215749  0.5975846196812910  0.1593627066513789
  0.6581463922688637  0.3857631311499037  0.1593672808850372
  0.6599271581281321  0.5986166073773243  0.1593676976990031
  0.5523386230069699  0.4907082964516817  0.1593767633232651
 
  0.00000000E+00  0.00000000E+00  0.00000000E+00
  0.00000000E+00  0.00000000E+00  0.00000000E+00
  0.00000000E+00  0.00000000E+00  0.00000000E+00
  0.00000000E+00  0.00000000E+00  0.00000000E+00
  0.00000000E+00  0.00000000E+00  0.00000000E+00
  0.00000000E+00  0.00000000E+00  0.00000000E+00
  0.00000000E+00  0.00000000E+00  0.00000000E+00
  0.00000000E+00  0.00000000E+00  0.00000000E+00
  0.00000000E+00  0.00000000E+00  0.00000000E+00
  0.00000000E+00  0.00000000E+00  0.00000000E+00
  0.00000000E+00  0.00000000E+00  0.00000000E+00
  0.00000000E+00  0.00000000E+00  0.00000000E+00
  0.00000000E+00  0.00000000E+00  0.00000000E+00
  0.00000000E+00  0.00000000E+00  0.00000000E+00
  0.00000000E+00  0.00000000E+00  0.00000000E+00
  0.00000000E+00  0.00000000E+00  0.00000000E+00
  0.00000000E+00  0.00000000E+00  0.00000000E+00
  0.00000000E+00  0.00000000E+00  0.00000000E+00
  0.00000000E+00  0.00000000E+00  0.00000000E+00
  0.00000000E+00  0.00000000E+00  0.00000000E+00
  0.00000000E+00  0.00000000E+00  0.00000000E+00
  0.00000000E+00  0.00000000E+00  0.00000000E+00
  0.00000000E+00  0.00000000E+00  0.00000000E+00
  0.00000000E+00  0.00000000E+00  0.00000000E+00
  0.00000000E+00  0.00000000E+00  0.00000000E+00
  0.00000000E+00  0.00000000E+00  0.00000000E+00
  0.00000000E+00  0.00000000E+00  0.00000000E+00
  0.00000000E+00  0.00000000E+00  0.00000000E+00
  0.00000000E+00  0.00000000E+00  0.00000000E+00
  0.00000000E+00  0.00000000E+00  0.00000000E+00
  0.00000000E+00  0.00000000E+00  0.00000000E+00
  0.00000000E+00  0.00000000E+00  0.00000000E+00
  0.00000000E+00  0.00000000E+00  0.00000000E+00
  0.00000000E+00  0.00000000E+00  0.00000000E+00
  0.00000000E+00  0.00000000E+00  0.00000000E+00
  0.00000000E+00  0.00000000E+00  0.00000000E+00
  0.00000000E+00  0.00000000E+00  0.00000000E+00
  0.00000000E+00  0.00000000E+00  0.00000000E+00
  0.00000000E+00  0.00000000E+00  0.00000000E+00
  0.00000000E+00  0.00000000E+00  0.00000000E+00
  0.00000000E+00  0.00000000E+00  0.00000000E+00
  0.00000000E+00  0.00000000E+00  0.00000000E+00
  0.00000000E+00  0.00000000E+00  0.00000000E+00
  0.00000000E+00  0.00000000E+00  0.00000000E+00
  0.00000000E+00  0.00000000E+00  0.00000000E+00
  0.00000000E+00  0.00000000E+00  0.00000000E+00
  0.00000000E+00  0.00000000E+00  0.00000000E+00
  0.00000000E+00  0.00000000E+00  0.00000000E+00
  0.00000000E+00  0.00000000E+00  0.00000000E+00
  0.00000000E+00  0.00000000E+00  0.00000000E+00
  0.00000000E+00  0.00000000E+00  0.00000000E+00
  0.00000000E+00  0.00000000E+00  0.00000000E+00
  0.00000000E+00  0.00000000E+00  0.00000000E+00
  0.00000000E+00  0.00000000E+00  0.00000000E+00
  0.00000000E+00  0.00000000E+00  0.00000000E+00
  0.00000000E+00  0.00000000E+00  0.00000000E+00
  0.00000000E+00  0.00000000E+00  0.00000000E+00
  0.00000000E+00  0.00000000E+00  0.00000000E+00
  0.00000000E+00  0.00000000E+00  0.00000000E+00
