 C  N Ni                                
   1.00000000000000     
     8.3593689596029748    0.0000344959418858    0.0000143033701562
     0.0000344642926219    8.3604874928448680   -0.0000047257465405
     0.0000378666217132   -0.0000052319659073   17.2026302551818091
   C    N    Ni
    20     4     1
Direct
  0.5000128006076211  0.0870252436878850  0.1541857690101936
  0.3543907667914954  0.1697479568178641  0.1542167077385337
  0.6456524831772394  0.1697439487606779  0.1542095927833293
  0.7960901674510614  0.9146469162965880  0.1542401065478594
  0.7960975060301135  0.0852897003269641  0.1542390420694069
  0.9146927934130806  0.2039015499046757  0.1542365482368918
  0.8302808409998375  0.3543282724021807  0.1542036652065367
  0.2039378129505826  0.0852977042474752  0.1542452263933175
  0.0853442240592274  0.2039060769973444  0.1542399617226045
  0.1697521454003041  0.3543473434141611  0.1542091260056541
  0.0870855666181873  0.4999671564104153  0.1541739437873124
  0.1697475273747645  0.6456169412882157  0.1542057134469624
  0.3543752935379444  0.8302008779354619  0.1542154639507321
  0.2039308067469147  0.9146557861447920  0.1542440965056009
  0.0853346383679335  0.7960429535306931  0.1542372673032953
  0.6456372396669763  0.8301971035556273  0.1542141718909842
  0.8302757473968587  0.6455976143568288  0.1542062973499065
  0.9146840687711483  0.7960388779121643  0.1542361675882323
  0.5000153515433500  0.9129201482207580  0.1541872294034988
  0.9129422031957205  0.4999776542099580  0.1541728504850950
  0.6654404530290654  0.3345267933788203  0.1542108238275247
  0.3345952935066803  0.3345334418968062  0.1542199509519961
  0.3345875681742022  0.6654182205574933  0.1542157882543334
  0.6654324144803461  0.6654118138681295  0.1542182378950831
  0.5000138466404594  0.4999728214661897  0.1542292614659088
 
  0.00000000E+00  0.00000000E+00  0.00000000E+00
  0.00000000E+00  0.00000000E+00  0.00000000E+00
  0.00000000E+00  0.00000000E+00  0.00000000E+00
  0.00000000E+00  0.00000000E+00  0.00000000E+00
  0.00000000E+00  0.00000000E+00  0.00000000E+00
  0.00000000E+00  0.00000000E+00  0.00000000E+00
  0.00000000E+00  0.00000000E+00  0.00000000E+00
  0.00000000E+00  0.00000000E+00  0.00000000E+00
  0.00000000E+00  0.00000000E+00  0.00000000E+00
  0.00000000E+00  0.00000000E+00  0.00000000E+00
  0.00000000E+00  0.00000000E+00  0.00000000E+00
  0.00000000E+00  0.00000000E+00  0.00000000E+00
  0.00000000E+00  0.00000000E+00  0.00000000E+00
  0.00000000E+00  0.00000000E+00  0.00000000E+00
  0.00000000E+00  0.00000000E+00  0.00000000E+00
  0.00000000E+00  0.00000000E+00  0.00000000E+00
  0.00000000E+00  0.00000000E+00  0.00000000E+00
  0.00000000E+00  0.00000000E+00  0.00000000E+00
  0.00000000E+00  0.00000000E+00  0.00000000E+00
  0.00000000E+00  0.00000000E+00  0.00000000E+00
  0.00000000E+00  0.00000000E+00  0.00000000E+00
  0.00000000E+00  0.00000000E+00  0.00000000E+00
  0.00000000E+00  0.00000000E+00  0.00000000E+00
  0.00000000E+00  0.00000000E+00  0.00000000E+00
  0.00000000E+00  0.00000000E+00  0.00000000E+00
