 C  N Cr                                
   1.00000000000000     
    12.5423884410592557    0.0000000000000000    0.0000000000000000
    -0.0000000000000004   12.8266673611531488    0.0000000000000000
     0.0000000000000003    0.0000000000000000   19.8713392819153718
   C    N    Cr
    56     2     1
Direct
  0.0522705592232141  0.0473446026466481  0.1594156888738267
  0.1519834034736242  0.1019886829778108  0.1593758193064910
  0.1510451826712131  0.2127383193344824  0.1592875660686969
  0.0520623239165157  0.2682644345881055  0.1592384577305412
  0.2524716119868577  0.0475830421387016  0.1594007554798503
  0.3522972458245939  0.1025811046381488  0.1593968065028049
  0.3507952399530505  0.2144407809241666  0.1593416212208033
  0.2502662618122957  0.2679362914660170  0.1592651860032515
  0.4526591759913854  0.0477581794274350  0.1594233023223906
  0.5516160441893557  0.1062157169104643  0.1594576088164192
  0.5517815640942364  0.2188719440007423  0.1594718185028529
  0.4486065718138022  0.2739201052540879  0.1593598021501064
  0.6515942302141279  0.0483776419974176  0.1594534924856156
  0.7524609888689943  0.1025680661055410  0.1594081800565984
  0.7535242394461539  0.2141812452753294  0.1593817523725973
  0.6550067455523304  0.2722583419261558  0.1594670731365167
  0.8521393570988467  0.0472694861824699  0.1593886609634269
  0.9524887147983104  0.1022206730747477  0.1593628683625937
  0.9527713222771467  0.2133808696754034  0.1592819460564314
  0.8535672744741064  0.2689488176916613  0.1592888683508955
  0.0522848521480988  0.3803876938790643  0.1592063851289797
  0.1498116852084447  0.4360308799577886  0.1592179658900501
  0.1495173521202429  0.5475613128036659  0.1592374615797836
  0.0519644099753227  0.6033565969024183  0.1592398380970364
  0.2477477941840486  0.3791122578186473  0.1592329299981094
  0.3449766444990893  0.4331264844494501  0.1592331331424301
  0.3452470881495425  0.5481221741096295  0.1592284878574073
  0.2477366469095389  0.6031418851211914  0.1592614418511513
  0.7590002448983774  0.4356336629771336  0.1593500768321931
  0.7592407745742247  0.5505974444305277  0.1593405994318584
  0.8564909425540780  0.3806040495890526  0.1592302088358552
  0.9547182780193273  0.4361518146075814  0.1591732279323737
  0.9544004321880220  0.5477455908279955  0.1591717918487631
  0.8565522820496869  0.6046458761734510  0.1592024112477688
  0.0523305575496218  0.7154655519523505  0.1592699004646334
  0.1516411541593776  0.7703891742352885  0.1593259794359788
  0.0522838695104120  0.9364545839022882  0.1594420290302832
  0.2508179873869270  0.7147657021035468  0.1593251046294865
  0.3509171336360197  0.7695407590781222  0.1593759384737099
  0.3520753345703191  0.8811347129537516  0.1594029222799605
  0.2524313972955731  0.9364426089536202  0.1594061059268396
  0.4494150445901560  0.7114997334730843  0.1593583774250963
  0.5526701362207196  0.7648949172864242  0.1594486871252790
  0.5529288445935504  0.8775539056062085  0.1594414712986877
  0.4529497550814010  0.9353553346975345  0.1594180157296148
  0.6558202028034857  0.7098929907301973  0.1594511216930040
  0.7536311740474769  0.7693036460320689  0.1593814984170791
  0.7522765840666071  0.8811630534074326  0.1594095773843205
  0.6519073952203588  0.9359927325383889  0.1594451112819942
  0.8541486480533158  0.7158206057765387  0.1592677105547110
  0.9534098488201664  0.7710050225263481  0.1593109243335153
  0.8521084523058020  0.9361624601741966  0.1593991229227272
  0.1520396139547361  0.8815284983094842  0.1593944506803794
  0.9525963024722747  0.8817973095273525  0.1593942244398364
  0.4428856682543899  0.6015523159546460  0.1592355153778523
  0.6613925776545416  0.3820801832007424  0.1595192917073588
  0.4405479119923382  0.3814584612163887  0.1592872906904592
  0.6637248294607636  0.6023692808350144  0.1594750917506473
  0.5521321810206182  0.4918903819543615  0.1594013614787303
 
  0.00000000E+00  0.00000000E+00  0.00000000E+00
  0.00000000E+00  0.00000000E+00  0.00000000E+00
  0.00000000E+00  0.00000000E+00  0.00000000E+00
  0.00000000E+00  0.00000000E+00  0.00000000E+00
  0.00000000E+00  0.00000000E+00  0.00000000E+00
  0.00000000E+00  0.00000000E+00  0.00000000E+00
  0.00000000E+00  0.00000000E+00  0.00000000E+00
  0.00000000E+00  0.00000000E+00  0.00000000E+00
  0.00000000E+00  0.00000000E+00  0.00000000E+00
  0.00000000E+00  0.00000000E+00  0.00000000E+00
  0.00000000E+00  0.00000000E+00  0.00000000E+00
  0.00000000E+00  0.00000000E+00  0.00000000E+00
  0.00000000E+00  0.00000000E+00  0.00000000E+00
  0.00000000E+00  0.00000000E+00  0.00000000E+00
  0.00000000E+00  0.00000000E+00  0.00000000E+00
  0.00000000E+00  0.00000000E+00  0.00000000E+00
  0.00000000E+00  0.00000000E+00  0.00000000E+00
  0.00000000E+00  0.00000000E+00  0.00000000E+00
  0.00000000E+00  0.00000000E+00  0.00000000E+00
  0.00000000E+00  0.00000000E+00  0.00000000E+00
  0.00000000E+00  0.00000000E+00  0.00000000E+00
  0.00000000E+00  0.00000000E+00  0.00000000E+00
  0.00000000E+00  0.00000000E+00  0.00000000E+00
  0.00000000E+00  0.00000000E+00  0.00000000E+00
  0.00000000E+00  0.00000000E+00  0.00000000E+00
  0.00000000E+00  0.00000000E+00  0.00000000E+00
  0.00000000E+00  0.00000000E+00  0.00000000E+00
  0.00000000E+00  0.00000000E+00  0.00000000E+00
  0.00000000E+00  0.00000000E+00  0.00000000E+00
  0.00000000E+00  0.00000000E+00  0.00000000E+00
  0.00000000E+00  0.00000000E+00  0.00000000E+00
  0.00000000E+00  0.00000000E+00  0.00000000E+00
  0.00000000E+00  0.00000000E+00  0.00000000E+00
  0.00000000E+00  0.00000000E+00  0.00000000E+00
  0.00000000E+00  0.00000000E+00  0.00000000E+00
  0.00000000E+00  0.00000000E+00  0.00000000E+00
  0.00000000E+00  0.00000000E+00  0.00000000E+00
  0.00000000E+00  0.00000000E+00  0.00000000E+00
  0.00000000E+00  0.00000000E+00  0.00000000E+00
  0.00000000E+00  0.00000000E+00  0.00000000E+00
  0.00000000E+00  0.00000000E+00  0.00000000E+00
  0.00000000E+00  0.00000000E+00  0.00000000E+00
  0.00000000E+00  0.00000000E+00  0.00000000E+00
  0.00000000E+00  0.00000000E+00  0.00000000E+00
  0.00000000E+00  0.00000000E+00  0.00000000E+00
  0.00000000E+00  0.00000000E+00  0.00000000E+00
  0.00000000E+00  0.00000000E+00  0.00000000E+00
  0.00000000E+00  0.00000000E+00  0.00000000E+00
  0.00000000E+00  0.00000000E+00  0.00000000E+00
  0.00000000E+00  0.00000000E+00  0.00000000E+00
  0.00000000E+00  0.00000000E+00  0.00000000E+00
  0.00000000E+00  0.00000000E+00  0.00000000E+00
  0.00000000E+00  0.00000000E+00  0.00000000E+00
  0.00000000E+00  0.00000000E+00  0.00000000E+00
  0.00000000E+00  0.00000000E+00  0.00000000E+00
  0.00000000E+00  0.00000000E+00  0.00000000E+00
  0.00000000E+00  0.00000000E+00  0.00000000E+00
  0.00000000E+00  0.00000000E+00  0.00000000E+00
  0.00000000E+00  0.00000000E+00  0.00000000E+00
