 C  N Fe                                
   1.00000000000000     
    12.5173811514839759    0.0000000000000000    0.0000000000000000
    -0.0000000000000004   12.8172800982004063    0.0000000000000000
     0.0000000000000003    0.0000000000000000   19.8713392819153718
   C    N    Fe
    57     1     1
Direct
  0.0521322060759211  0.0476693653636739  0.1594143386886800
  0.1521366823204720  0.1023144673945213  0.1593731627181410
  0.1516769666687955  0.2133195507465690  0.1592956557911240
  0.0521038537003061  0.2686736399200078  0.1592477406689330
  0.2525360657566948  0.0474945283553717  0.1593874186825639
  0.3526044214305565  0.1028380369657895  0.1594177144351714
  0.3519390261573410  0.2147753461034368  0.1594159951308442
  0.2510631903864300  0.2686287969048230  0.1592544620588731
  0.4527444932148283  0.0473775347548590  0.1594717813438929
  0.5523998198318417  0.1051700147302102  0.1595146003470138
  0.5523895602431279  0.2171350034212353  0.1595378304397373
  0.4509043719661699  0.2729144599248392  0.1595512963849833
  0.6520975509965662  0.0476727050475912  0.1594667523272258
  0.7520967797538087  0.1031919444330189  0.1594252554742898
  0.7525192396993964  0.2152795382393523  0.1593956133065390
  0.6538082373508176  0.2735038198750930  0.1594333936084283
  0.8518526196748671  0.0475348238821295  0.1594007334584890
  0.9521444183110828  0.1024967063243848  0.1593845584105709
  0.9523961943620971  0.2136094169387160  0.1592945795424886
  0.8530771148866109  0.2694260830926924  0.1592813786294192
  0.0519098482835280  0.3803414541208933  0.1592173512152432
  0.1499305368186116  0.4360769945573278  0.1591571921623539
  0.1497259213668699  0.5476223691165519  0.1591885688564629
  0.0519309983613028  0.6034986801430535  0.1592223226167222
  0.2482669264330543  0.3797230624018132  0.1591024183495912
  0.3454303348407085  0.4356002764294922  0.1591675095813523
  0.3448774302973362  0.5484252905330692  0.1593917901680765
  0.2479408310310932  0.6039262270665123  0.1592974535895808
  0.7577044400908046  0.4366726988149584  0.1591635923351374
  0.7583356928290625  0.5499577559898451  0.1593890953082626
  0.8553206840608462  0.3808876300361523  0.1591974292594154
  0.9540207684203099  0.4362881854748760  0.1591990008291052
  0.9539851440882700  0.5475754209609519  0.1591853653211710
  0.8559800129567441  0.6044155446776313  0.1592717111199691
  0.0522887118033008  0.7151907946092246  0.1592691485857258
  0.1518098362223845  0.7706006488551882  0.1593036306930875
  0.0522476848495170  0.9366353290814387  0.1594238340772983
  0.2508973454299221  0.7150278707107209  0.1593405009853796
  0.3517668892482855  0.7688913757572094  0.1594412990835793
  0.3524004026182755  0.8805244370572829  0.1594430782198341
  0.2525602939809403  0.9363046146756493  0.1594121654979508
  0.4504457431232507  0.7104686390143011  0.1594373360719933
  0.5530160225135771  0.7645504738701383  0.1594184960376923
  0.5530991098062448  0.8770591059942781  0.1594402768733257
  0.4530037863450224  0.9350660596053607  0.1594519650468458
  0.6554633821230095  0.7085165108403274  0.1594573071281296
  0.7532316059476062  0.7682462891645531  0.1593832084197382
  0.7520739933733237  0.8803056860481955  0.1593971925135529
  0.6522540138174241  0.9354206736462364  0.1594464770871424
  0.8540460570722427  0.7153018173314675  0.1593223085902996
  0.9531338290027501  0.7708011913693346  0.1593283388087265
  0.8519320133024602  0.9361301053219667  0.1593939849589790
  0.1520796272817324  0.8816598948898049  0.1593784423487640
  0.9523865666845556  0.8817337829491781  0.1593830311316534
  0.4460495282048217  0.3839745363235498  0.1594037854233055
  0.4450985125354287  0.6000423287158714  0.1594856044862531
  0.6578142679524992  0.3847599838368650  0.1591328698248735
  0.6616175140357133  0.6004628023046173  0.1596213064301507
  0.5494809700489152  0.4908676714027118  0.1587494089877851
 
  0.00000000E+00  0.00000000E+00  0.00000000E+00
  0.00000000E+00  0.00000000E+00  0.00000000E+00
  0.00000000E+00  0.00000000E+00  0.00000000E+00
  0.00000000E+00  0.00000000E+00  0.00000000E+00
  0.00000000E+00  0.00000000E+00  0.00000000E+00
  0.00000000E+00  0.00000000E+00  0.00000000E+00
  0.00000000E+00  0.00000000E+00  0.00000000E+00
  0.00000000E+00  0.00000000E+00  0.00000000E+00
  0.00000000E+00  0.00000000E+00  0.00000000E+00
  0.00000000E+00  0.00000000E+00  0.00000000E+00
  0.00000000E+00  0.00000000E+00  0.00000000E+00
  0.00000000E+00  0.00000000E+00  0.00000000E+00
  0.00000000E+00  0.00000000E+00  0.00000000E+00
  0.00000000E+00  0.00000000E+00  0.00000000E+00
  0.00000000E+00  0.00000000E+00  0.00000000E+00
  0.00000000E+00  0.00000000E+00  0.00000000E+00
  0.00000000E+00  0.00000000E+00  0.00000000E+00
  0.00000000E+00  0.00000000E+00  0.00000000E+00
  0.00000000E+00  0.00000000E+00  0.00000000E+00
  0.00000000E+00  0.00000000E+00  0.00000000E+00
  0.00000000E+00  0.00000000E+00  0.00000000E+00
  0.00000000E+00  0.00000000E+00  0.00000000E+00
  0.00000000E+00  0.00000000E+00  0.00000000E+00
  0.00000000E+00  0.00000000E+00  0.00000000E+00
  0.00000000E+00  0.00000000E+00  0.00000000E+00
  0.00000000E+00  0.00000000E+00  0.00000000E+00
  0.00000000E+00  0.00000000E+00  0.00000000E+00
  0.00000000E+00  0.00000000E+00  0.00000000E+00
  0.00000000E+00  0.00000000E+00  0.00000000E+00
  0.00000000E+00  0.00000000E+00  0.00000000E+00
  0.00000000E+00  0.00000000E+00  0.00000000E+00
  0.00000000E+00  0.00000000E+00  0.00000000E+00
  0.00000000E+00  0.00000000E+00  0.00000000E+00
  0.00000000E+00  0.00000000E+00  0.00000000E+00
  0.00000000E+00  0.00000000E+00  0.00000000E+00
  0.00000000E+00  0.00000000E+00  0.00000000E+00
  0.00000000E+00  0.00000000E+00  0.00000000E+00
  0.00000000E+00  0.00000000E+00  0.00000000E+00
  0.00000000E+00  0.00000000E+00  0.00000000E+00
  0.00000000E+00  0.00000000E+00  0.00000000E+00
  0.00000000E+00  0.00000000E+00  0.00000000E+00
  0.00000000E+00  0.00000000E+00  0.00000000E+00
  0.00000000E+00  0.00000000E+00  0.00000000E+00
  0.00000000E+00  0.00000000E+00  0.00000000E+00
  0.00000000E+00  0.00000000E+00  0.00000000E+00
  0.00000000E+00  0.00000000E+00  0.00000000E+00
  0.00000000E+00  0.00000000E+00  0.00000000E+00
  0.00000000E+00  0.00000000E+00  0.00000000E+00
  0.00000000E+00  0.00000000E+00  0.00000000E+00
  0.00000000E+00  0.00000000E+00  0.00000000E+00
  0.00000000E+00  0.00000000E+00  0.00000000E+00
  0.00000000E+00  0.00000000E+00  0.00000000E+00
  0.00000000E+00  0.00000000E+00  0.00000000E+00
  0.00000000E+00  0.00000000E+00  0.00000000E+00
  0.00000000E+00  0.00000000E+00  0.00000000E+00
  0.00000000E+00  0.00000000E+00  0.00000000E+00
  0.00000000E+00  0.00000000E+00  0.00000000E+00
  0.00000000E+00  0.00000000E+00  0.00000000E+00
  0.00000000E+00  0.00000000E+00  0.00000000E+00
