 C  N Co                                
   1.00000000000000     
     8.3927247025231484    0.0092677935620549   -0.0000503451187395
     0.0092356780178565    8.3927695157381308   -0.0001656799927459
    -0.0001189875541123   -0.0003921383805709   19.8221993190944410
   C    N    Co
    21     3     1
Direct
  0.4990469815539352  0.0830298895891869  0.1542918666452580
  0.3533594139640421  0.1666279916947427  0.1542703894636995
  0.6429033463503689  0.1672411865550911  0.1542364896526952
  0.7942432634498766  0.9163963617713798  0.1540697480417318
  0.7931492245433229  0.0837324449923521  0.1540667669790253
  0.9162590131887237  0.2068307863011412  0.1540669060105928
  0.8327694989092168  0.3570815596399085  0.1542245159162562
  0.2047229679622193  0.0840646475935371  0.1540892242510801
  0.0835984805320959  0.2057359809290698  0.1540806060923307
  0.1706334177024212  0.3543620310775421  0.1542498772147889
  0.0891637444928299  0.5009709765103716  0.1542651452768277
  0.1695327561506451  0.6470882279538109  0.1542447562232030
  0.3528886100798786  0.8304593406360783  0.1542625857261164
  0.2040767341475887  0.9161917211082619  0.1540881778609657
  0.0837932827938692  0.7958949219662981  0.1540741102206445
  0.6456259207871941  0.8293464492094967  0.1542405761703464
  0.8333557855451269  0.6466262373262595  0.1542158468847670
  0.9159241235516771  0.7952557609688694  0.1540557889707972
  0.4990205239190516  0.9108342091879793  0.1542897788446879
  0.9169700913161257  0.5009428834803390  0.1542527421294759
  0.6612554141557914  0.3387334667507857  0.1543291357855205
  0.3352032184702400  0.3322454008629043  0.1543515764836877
  0.3329087438633956  0.6670671861707143  0.1543532123556372
  0.6677324197478287  0.6647728153068687  0.1543148435753809
  0.5022125827536269  0.4977804400051891  0.1544283430452831
 
  0.00000000E+00  0.00000000E+00  0.00000000E+00
  0.00000000E+00  0.00000000E+00  0.00000000E+00
  0.00000000E+00  0.00000000E+00  0.00000000E+00
  0.00000000E+00  0.00000000E+00  0.00000000E+00
  0.00000000E+00  0.00000000E+00  0.00000000E+00
  0.00000000E+00  0.00000000E+00  0.00000000E+00
  0.00000000E+00  0.00000000E+00  0.00000000E+00
  0.00000000E+00  0.00000000E+00  0.00000000E+00
  0.00000000E+00  0.00000000E+00  0.00000000E+00
  0.00000000E+00  0.00000000E+00  0.00000000E+00
  0.00000000E+00  0.00000000E+00  0.00000000E+00
  0.00000000E+00  0.00000000E+00  0.00000000E+00
  0.00000000E+00  0.00000000E+00  0.00000000E+00
  0.00000000E+00  0.00000000E+00  0.00000000E+00
  0.00000000E+00  0.00000000E+00  0.00000000E+00
  0.00000000E+00  0.00000000E+00  0.00000000E+00
  0.00000000E+00  0.00000000E+00  0.00000000E+00
  0.00000000E+00  0.00000000E+00  0.00000000E+00
  0.00000000E+00  0.00000000E+00  0.00000000E+00
  0.00000000E+00  0.00000000E+00  0.00000000E+00
  0.00000000E+00  0.00000000E+00  0.00000000E+00
  0.00000000E+00  0.00000000E+00  0.00000000E+00
  0.00000000E+00  0.00000000E+00  0.00000000E+00
  0.00000000E+00  0.00000000E+00  0.00000000E+00
  0.00000000E+00  0.00000000E+00  0.00000000E+00
