 C  N Mn                                
   1.00000000000000     
    12.5247745910114361    0.0000000000000000    0.0000000000000000
    -0.0000000000000004   12.8100004142618769    0.0000000000000000
     0.0000000000000003    0.0000000000000000   19.8713392819153718
   C    N    Mn
    56     2     1
Direct
  0.0523383838926590  0.0472996597983606  0.1594143166940017
  0.1521976893838868  0.1019342984305871  0.1593657541176020
  0.1515200422085241  0.2130032008692279  0.1592785939885192
  0.0519362683814492  0.2685343955835288  0.1592448673654250
  0.2527295754448589  0.0475394182467860  0.1593960279630345
  0.3527150556929230  0.1028641269346993  0.1593986930474560
  0.3514968688444112  0.2148257667896155  0.1593544032265633
  0.2503582620402605  0.2680091208740092  0.1592666645179096
  0.4529007148854490  0.0475731809490195  0.1594284429307943
  0.5515466097966008  0.1060654229015384  0.1594476833344315
  0.5513185561794831  0.2188464400652443  0.1594339213890200
  0.4494552998470536  0.2740634537427633  0.1594028247671702
  0.6513890232470406  0.0485321361324029  0.1594446417434000
  0.7519361390806522  0.1032347747540086  0.1594020573621830
  0.7528862696996979  0.2148079732671078  0.1593569794999167
  0.6540143247964009  0.2733254154859225  0.1593760559539747
  0.8519173401632643  0.0476030739060924  0.1593960837907393
  0.9520617727326179  0.1023790892602535  0.1593691730658080
  0.9525302008742381  0.2135836559814817  0.1592902354952489
  0.8532143713536534  0.2692750564083033  0.1592914955217553
  0.0522727302226512  0.3801884942994618  0.1592160305306843
  0.1499657584584708  0.4360649687248341  0.1592136290305212
  0.1496910481693276  0.5474323738858883  0.1592312968992241
  0.0519581856795953  0.6035619408841281  0.1592465856401921
  0.2482048217913954  0.3793729916833829  0.1592483839371324
  0.3451170941313481  0.4338801319166063  0.1593174689672743
  0.3455027676845440  0.5470757809263855  0.1593242217857413
  0.2480817236220466  0.6028300047747364  0.1592792971789342
  0.7587450565035512  0.4366488654845895  0.1592468720414921
  0.7591110539316374  0.5498948500058563  0.1592574477987153
  0.8561268054916445  0.3808943420945329  0.1592331148703994
  0.9545507485056681  0.4363068044936197  0.1592028637748906
  0.9542167752913808  0.5476793415004471  0.1592032151184742
  0.8560698117413230  0.6043944791229348  0.1592244647136706
  0.0524362485754253  0.7152200349160579  0.1592724522495240
  0.1518952333681383  0.7701463814130711  0.1592988170676383
  0.0522549963843699  0.9364851514044193  0.1594372023957719
  0.2511929330153938  0.7144569332079084  0.1593114147378532
  0.3515591212368966  0.7688832784389379  0.1593663247385024
  0.3525998481824813  0.8804636637282584  0.1594000590268219
  0.2526621679961537  0.9360974862744152  0.1594017794864296
  0.4503926035488142  0.7103878872953731  0.1593910415029375
  0.5531242463681838  0.7649456957865000  0.1594190514668174
  0.5530170893733946  0.8776977613460296  0.1594243961932288
  0.4531721250620036  0.9351928745534758  0.1594158506116705
  0.6549625340294647  0.7097617575687757  0.1593873732106382
  0.7529837135759313  0.7689689048580193  0.1593614004071804
  0.7518700643520452  0.8808779013780800  0.1593988812781336
  0.6516661726149091  0.9361860438917698  0.1594338117658323
  0.8540437959515869  0.7157148494235759  0.1592906612556632
  0.9529189970724740  0.7707465829432650  0.1593262006700346
  0.8518586251070680  0.9362085125520601  0.1594054762707558
  0.1524657083488232  0.8813870859604490  0.1593775176064127
  0.9523963727664098  0.8818057711084064  0.1593958725773230
  0.4440195103512818  0.6007346969350228  0.1593947079906446
  0.6602027465407536  0.3829704964986035  0.1593256326523937
  0.4423683258716397  0.3823885359920307  0.1594055467238924
  0.6618689765281773  0.6014262753528060  0.1593716579450135
  0.5521707838876284  0.4919004033028451  0.1595631210752430
 
  0.00000000E+00  0.00000000E+00  0.00000000E+00
  0.00000000E+00  0.00000000E+00  0.00000000E+00
  0.00000000E+00  0.00000000E+00  0.00000000E+00
  0.00000000E+00  0.00000000E+00  0.00000000E+00
  0.00000000E+00  0.00000000E+00  0.00000000E+00
  0.00000000E+00  0.00000000E+00  0.00000000E+00
  0.00000000E+00  0.00000000E+00  0.00000000E+00
  0.00000000E+00  0.00000000E+00  0.00000000E+00
  0.00000000E+00  0.00000000E+00  0.00000000E+00
  0.00000000E+00  0.00000000E+00  0.00000000E+00
  0.00000000E+00  0.00000000E+00  0.00000000E+00
  0.00000000E+00  0.00000000E+00  0.00000000E+00
  0.00000000E+00  0.00000000E+00  0.00000000E+00
  0.00000000E+00  0.00000000E+00  0.00000000E+00
  0.00000000E+00  0.00000000E+00  0.00000000E+00
  0.00000000E+00  0.00000000E+00  0.00000000E+00
  0.00000000E+00  0.00000000E+00  0.00000000E+00
  0.00000000E+00  0.00000000E+00  0.00000000E+00
  0.00000000E+00  0.00000000E+00  0.00000000E+00
  0.00000000E+00  0.00000000E+00  0.00000000E+00
  0.00000000E+00  0.00000000E+00  0.00000000E+00
  0.00000000E+00  0.00000000E+00  0.00000000E+00
  0.00000000E+00  0.00000000E+00  0.00000000E+00
  0.00000000E+00  0.00000000E+00  0.00000000E+00
  0.00000000E+00  0.00000000E+00  0.00000000E+00
  0.00000000E+00  0.00000000E+00  0.00000000E+00
  0.00000000E+00  0.00000000E+00  0.00000000E+00
  0.00000000E+00  0.00000000E+00  0.00000000E+00
  0.00000000E+00  0.00000000E+00  0.00000000E+00
  0.00000000E+00  0.00000000E+00  0.00000000E+00
  0.00000000E+00  0.00000000E+00  0.00000000E+00
  0.00000000E+00  0.00000000E+00  0.00000000E+00
  0.00000000E+00  0.00000000E+00  0.00000000E+00
  0.00000000E+00  0.00000000E+00  0.00000000E+00
  0.00000000E+00  0.00000000E+00  0.00000000E+00
  0.00000000E+00  0.00000000E+00  0.00000000E+00
  0.00000000E+00  0.00000000E+00  0.00000000E+00
  0.00000000E+00  0.00000000E+00  0.00000000E+00
  0.00000000E+00  0.00000000E+00  0.00000000E+00
  0.00000000E+00  0.00000000E+00  0.00000000E+00
  0.00000000E+00  0.00000000E+00  0.00000000E+00
  0.00000000E+00  0.00000000E+00  0.00000000E+00
  0.00000000E+00  0.00000000E+00  0.00000000E+00
  0.00000000E+00  0.00000000E+00  0.00000000E+00
  0.00000000E+00  0.00000000E+00  0.00000000E+00
  0.00000000E+00  0.00000000E+00  0.00000000E+00
  0.00000000E+00  0.00000000E+00  0.00000000E+00
  0.00000000E+00  0.00000000E+00  0.00000000E+00
  0.00000000E+00  0.00000000E+00  0.00000000E+00
  0.00000000E+00  0.00000000E+00  0.00000000E+00
  0.00000000E+00  0.00000000E+00  0.00000000E+00
  0.00000000E+00  0.00000000E+00  0.00000000E+00
  0.00000000E+00  0.00000000E+00  0.00000000E+00
  0.00000000E+00  0.00000000E+00  0.00000000E+00
  0.00000000E+00  0.00000000E+00  0.00000000E+00
  0.00000000E+00  0.00000000E+00  0.00000000E+00
  0.00000000E+00  0.00000000E+00  0.00000000E+00
  0.00000000E+00  0.00000000E+00  0.00000000E+00
  0.00000000E+00  0.00000000E+00  0.00000000E+00
