 C  N Cu                                
   1.00000000000000     
     8.4330998061303770    0.0189704285833828   -0.0000008760326934
     0.0189225716563739    8.4330868862833768   -0.0000614336754839
     0.0000365490491576   -0.0001784800650327   20.6280425525204478
   C    N    Cu
    21     3     1
Direct
  0.4982062374239286  0.0835315070752561  0.1542702927774234
  0.3509999019848422  0.1650636447883933  0.1542191297842827
  0.6428309078822217  0.1668206536837553  0.1542444893875400
  0.7969292031663378  0.9169128283034774  0.1540108517344634
  0.7954026491654829  0.0841748136033605  0.1540285500873083
  0.9158067091739747  0.2045830728531675  0.1540208141351572
  0.8331586525342061  0.3571547361860505  0.1542191855175100
  0.2029992204612684  0.0835637551036199  0.1540326257670552
  0.0830727138643097  0.2030547423078053  0.1540150110707234
  0.1688289100490324  0.3531734910023411  0.1542402670269593
  0.0888369112501639  0.5011580717297418  0.1542575595260351
  0.1696461648933133  0.6470948950579543  0.1542747953305452
  0.3528957399688991  0.8303488157442860  0.1542906413495200
  0.2031529312447747  0.9146097729996808  0.1540814764357830
  0.0853719894765435  0.7968395828032265  0.1540668047526383
  0.6468100793254344  0.8311620026363492  0.1542265661175659
  0.8349223964867123  0.6489971603606578  0.1541666591002976
  0.9164298851564773  0.7969808019466613  0.1540043913972753
  0.4988293109577587  0.9111406866702708  0.1542775070367709
  0.9164531287203395  0.5017724918907561  0.1542234600703274
  0.6656063942702639  0.3343834636425191  0.1544850045377272
  0.3296956381418459  0.3290817672480191  0.1544348842208285
  0.3319887854544512  0.6680008840223685  0.1544211576469511
  0.6709110911045538  0.6702894845595340  0.1543797686657777
  0.5005640077739667  0.4994197913689112  0.1545211163443274
 
  0.00000000E+00  0.00000000E+00  0.00000000E+00
  0.00000000E+00  0.00000000E+00  0.00000000E+00
  0.00000000E+00  0.00000000E+00  0.00000000E+00
  0.00000000E+00  0.00000000E+00  0.00000000E+00
  0.00000000E+00  0.00000000E+00  0.00000000E+00
  0.00000000E+00  0.00000000E+00  0.00000000E+00
  0.00000000E+00  0.00000000E+00  0.00000000E+00
  0.00000000E+00  0.00000000E+00  0.00000000E+00
  0.00000000E+00  0.00000000E+00  0.00000000E+00
  0.00000000E+00  0.00000000E+00  0.00000000E+00
  0.00000000E+00  0.00000000E+00  0.00000000E+00
  0.00000000E+00  0.00000000E+00  0.00000000E+00
  0.00000000E+00  0.00000000E+00  0.00000000E+00
  0.00000000E+00  0.00000000E+00  0.00000000E+00
  0.00000000E+00  0.00000000E+00  0.00000000E+00
  0.00000000E+00  0.00000000E+00  0.00000000E+00
  0.00000000E+00  0.00000000E+00  0.00000000E+00
  0.00000000E+00  0.00000000E+00  0.00000000E+00
  0.00000000E+00  0.00000000E+00  0.00000000E+00
  0.00000000E+00  0.00000000E+00  0.00000000E+00
  0.00000000E+00  0.00000000E+00  0.00000000E+00
  0.00000000E+00  0.00000000E+00  0.00000000E+00
  0.00000000E+00  0.00000000E+00  0.00000000E+00
  0.00000000E+00  0.00000000E+00  0.00000000E+00
  0.00000000E+00  0.00000000E+00  0.00000000E+00
