 C  N  V                                
   1.00000000000000     
    12.5094322067302652    0.0000000000000000    0.0000000000000000
    -0.0000000000000004   12.8246973106013868    0.0000000000000000
     0.0000000000000003    0.0000000000000000   19.8713392819153718
   C    N    V 
    55     3     1
Direct
  0.0520941100916939  0.0476156562763542  0.1594086354440974
  0.1522761884080538  0.1024408212186417  0.1593850229768408
  0.1518324676963802  0.2137040842602874  0.1593159695422221
  0.0522842062362192  0.2688497680424927  0.1592542697780388
  0.2523352715217377  0.0473849181565765  0.1594275526502378
  0.3524289100069052  0.1024047171227729  0.1594400756514947
  0.3515265815040624  0.2139736684334250  0.1593534229052216
  0.2511568947248984  0.2692277712557103  0.1593059433362089
  0.4531982205600371  0.0478163163328430  0.1594630899431346
  0.5529376101132154  0.1054853720612964  0.1594702856242300
  0.5529541758608186  0.2180740435131193  0.1594222671096086
  0.4500659731372273  0.2716267196912760  0.1592732405532873
  0.6517522039230310  0.0474744171603134  0.1594672370595052
  0.7518219177962970  0.1028144112811488  0.1594115696541705
  0.7529366065299754  0.2147756188994625  0.1593873841668726
  0.6550874936337526  0.2733029062600527  0.1594507674484425
  0.8519293054123663  0.0476442484652854  0.1593973035837985
  0.9521211625035797  0.1024080467631853  0.1593686421540948
  0.9525296463282211  0.2136621565906846  0.1592888909666633
  0.8536499536778627  0.2689449813972303  0.1593061973432824
  0.0518577577289230  0.3802427261598679  0.1592115650794829
  0.1497466672406257  0.4362863417740393  0.1592193988684474
  0.1497481003739405  0.5475562415390824  0.1592188926522738
  0.0521626908927398  0.6035470001265585  0.1592271018314108
  0.2482872404032136  0.3808694645228887  0.1592299690599788
  0.3460707723513265  0.4364734121349151  0.1591026306326803
  0.3450013365156501  0.5498843745126575  0.1591337127159158
  0.2480103095167754  0.6042044851201598  0.1592213744735488
  0.7578248462322678  0.4352201168234186  0.1594022057108205
  0.7584130020514873  0.5486997737244549  0.1593933944545208
  0.8553709756876656  0.3806338564496168  0.1592619376528600
  0.9540231793264096  0.4363662082383427  0.1591665195358685
  0.9542918888843639  0.5473295895205174  0.1591637067358412
  0.8560629418407188  0.6031693674948447  0.1592460308374086
  0.0521131016305604  0.7149685344799369  0.1592767133118508
  0.1514970041117616  0.7705996172143903  0.1593244710121221
  0.0520945486209972  0.9366059720070814  0.1594202673477967
  0.2503209321730642  0.7154341540699314  0.1593001231887603
  0.3511543691212259  0.7692540141688446  0.1593702805634953
  0.3525293367087096  0.8808439432905388  0.1594447056581228
  0.2524102639639792  0.9360907557415175  0.1594280993072625
  0.4488354091261897  0.7103082222304167  0.1593258690107046
  0.5523407385577991  0.7635769371319890  0.1594183189227511
  0.5523035334990029  0.8768864853563902  0.1594654089975585
  0.4532346639766718  0.9352473107706196  0.1594598720246307
  0.6559350976391517  0.7101666713575674  0.1594587560694319
  0.7535162955567499  0.7691270387137112  0.1593926242174951
  0.7520588623355490  0.8806744482973017  0.1594151163579164
  0.6516090135767787  0.9350169474257779  0.1594719461993578
  0.8538810248137340  0.7147362853023767  0.1593071892579091
  0.9527505968864671  0.7702685181612461  0.1593066669565505
  0.8520038917742613  0.9362158346262299  0.1594001284194693
  0.1520594379904815  0.8816530540743179  0.1593876392186739
  0.9521897997129261  0.8815611774096374  0.1593740130921184
  0.4445623375247570  0.3814175036488964  0.1590621346915536
  0.4415615166307892  0.6031020558274316  0.1591857647519629
  0.6609471841619390  0.3815119729288428  0.1595373262367602
  0.6629729753053288  0.6033678988834638  0.1595396359887809
  0.5515075458781579  0.4918310416749362  0.1595107805363724
 
  0.00000000E+00  0.00000000E+00  0.00000000E+00
  0.00000000E+00  0.00000000E+00  0.00000000E+00
  0.00000000E+00  0.00000000E+00  0.00000000E+00
  0.00000000E+00  0.00000000E+00  0.00000000E+00
  0.00000000E+00  0.00000000E+00  0.00000000E+00
  0.00000000E+00  0.00000000E+00  0.00000000E+00
  0.00000000E+00  0.00000000E+00  0.00000000E+00
  0.00000000E+00  0.00000000E+00  0.00000000E+00
  0.00000000E+00  0.00000000E+00  0.00000000E+00
  0.00000000E+00  0.00000000E+00  0.00000000E+00
  0.00000000E+00  0.00000000E+00  0.00000000E+00
  0.00000000E+00  0.00000000E+00  0.00000000E+00
  0.00000000E+00  0.00000000E+00  0.00000000E+00
  0.00000000E+00  0.00000000E+00  0.00000000E+00
  0.00000000E+00  0.00000000E+00  0.00000000E+00
  0.00000000E+00  0.00000000E+00  0.00000000E+00
  0.00000000E+00  0.00000000E+00  0.00000000E+00
  0.00000000E+00  0.00000000E+00  0.00000000E+00
  0.00000000E+00  0.00000000E+00  0.00000000E+00
  0.00000000E+00  0.00000000E+00  0.00000000E+00
  0.00000000E+00  0.00000000E+00  0.00000000E+00
  0.00000000E+00  0.00000000E+00  0.00000000E+00
  0.00000000E+00  0.00000000E+00  0.00000000E+00
  0.00000000E+00  0.00000000E+00  0.00000000E+00
  0.00000000E+00  0.00000000E+00  0.00000000E+00
  0.00000000E+00  0.00000000E+00  0.00000000E+00
  0.00000000E+00  0.00000000E+00  0.00000000E+00
  0.00000000E+00  0.00000000E+00  0.00000000E+00
  0.00000000E+00  0.00000000E+00  0.00000000E+00
  0.00000000E+00  0.00000000E+00  0.00000000E+00
  0.00000000E+00  0.00000000E+00  0.00000000E+00
  0.00000000E+00  0.00000000E+00  0.00000000E+00
  0.00000000E+00  0.00000000E+00  0.00000000E+00
  0.00000000E+00  0.00000000E+00  0.00000000E+00
  0.00000000E+00  0.00000000E+00  0.00000000E+00
  0.00000000E+00  0.00000000E+00  0.00000000E+00
  0.00000000E+00  0.00000000E+00  0.00000000E+00
  0.00000000E+00  0.00000000E+00  0.00000000E+00
  0.00000000E+00  0.00000000E+00  0.00000000E+00
  0.00000000E+00  0.00000000E+00  0.00000000E+00
  0.00000000E+00  0.00000000E+00  0.00000000E+00
  0.00000000E+00  0.00000000E+00  0.00000000E+00
  0.00000000E+00  0.00000000E+00  0.00000000E+00
  0.00000000E+00  0.00000000E+00  0.00000000E+00
  0.00000000E+00  0.00000000E+00  0.00000000E+00
  0.00000000E+00  0.00000000E+00  0.00000000E+00
  0.00000000E+00  0.00000000E+00  0.00000000E+00
  0.00000000E+00  0.00000000E+00  0.00000000E+00
  0.00000000E+00  0.00000000E+00  0.00000000E+00
  0.00000000E+00  0.00000000E+00  0.00000000E+00
  0.00000000E+00  0.00000000E+00  0.00000000E+00
  0.00000000E+00  0.00000000E+00  0.00000000E+00
  0.00000000E+00  0.00000000E+00  0.00000000E+00
  0.00000000E+00  0.00000000E+00  0.00000000E+00
  0.00000000E+00  0.00000000E+00  0.00000000E+00
  0.00000000E+00  0.00000000E+00  0.00000000E+00
  0.00000000E+00  0.00000000E+00  0.00000000E+00
  0.00000000E+00  0.00000000E+00  0.00000000E+00
  0.00000000E+00  0.00000000E+00  0.00000000E+00
