 C  N  H Co                             
   1.00000000000000     
    11.0700000000000003  -19.1738024397000011    0.0000000000000000
    11.0700000000000003   19.1738024397000011    0.0000000000000000
     0.0000000000000000    0.0000000000000000   16.0000000000000000
   C    N    H    Co
   206     4    28     1
Direct
  1.0000519387140052  0.9999943293929677  0.1097484662396047
  0.0371150028920761  0.0740741227970053  0.1087860162514373
  0.0000955736300871  0.1111187519036643  0.1102199654662263
  0.0371435261724991  0.1851916159953269  0.1090029713062302
  0.0001193847380807  0.2222310446548560  0.1112442645477028
  0.0371567014108513  0.2963046399237221  0.1097319079326757
  1.0001222249843844  0.3333441369306078  0.1122686789959286
  0.0371622913251259  0.4074197287601325  0.1112257167718779
  1.0000955057602912  0.4444384515226082  0.1133996937008132
  0.0371260897295730  0.5185119517042797  0.1128969190014777
  0.0000276046222725  0.5555193213144533  0.1140890095432551
  0.0370571930027048  0.6295890080475534  0.1141233266182281
 -0.0000276753910270  0.6666144917041987  0.1140651107958806
  0.0370125438388275  0.7406939198966490  0.1143880932393888
  0.9999554928311255  0.7777256227565299  0.1130775053703772
  0.0370249560328006  0.8518107109156127  0.1130035051810695
 -0.0000048361047546  0.8888503131630657  0.1111197550970254
  0.0370659302658280  0.9629327386789175  0.1104082851231938
  0.1111587377563564  0.0000028835678131  0.1098497364922568
  0.1481832674534022  0.0740484989252906  0.1066850188376602
  0.1111595307037964  0.1110996665643845  0.1060527305965374
  0.1481775479392703  0.1851351637338511  0.1034194827735577
  0.1111569276703480  0.2221938982374419  0.1046564650126513
  0.1481603127659074  0.2962466204743937  0.1016620123400832
  0.1111458424833070  0.3333055272306719  0.1044889904653132
  0.1481638606700748  0.4073853179129169  0.1022064724095043
  0.1111809603885622  0.4444421639311038  0.1064377993520138
  0.1481929701486616  0.5185218577811305  0.1052392246378623
  0.1111793408430132  0.5555433672558386  0.1093749036680783
  0.1481959841012146  0.6296137571707164  0.1089256318264071
  0.1111529975398933  0.6666266546306193  0.1124263758537321
  0.1481693829926941  0.7407040704466799  0.1127584980276056
  0.1111190994836384  0.7777446657781583  0.1144670144491222
  0.1481658576130677  0.8518290697351383  0.1143045703997431
  0.1111203052606317  0.8888740756888156  0.1136922410121794
  0.1481831554848865  0.9629553132835306  0.1119122138026856
  0.2222789025209757  1.0000248293965197  0.1116312360186800
  0.2593098186967979  0.0740928360344762  0.1088607115076220
  0.2222691379862833  0.1111070262005492  0.1057175504041454
  0.2592912402474792  0.1851601869202455  0.1028516909545461
  0.2222346860819865  0.2221804354020057  0.1010335038430389
  0.2592606926330720  0.2962395789930451  0.0985756529369200
  0.2221963171896287  0.3332728096456384  0.0974521173234723
  0.2592051915919053  0.4073293682324380  0.0952722310679375
  0.2221527595350804  0.4443778452520202  0.0969159086792601
  0.2591883715130597  0.5184836927281896  0.0965285206558225
  0.2221881890355677  0.5555521010431201  0.1000678324496246
  0.2592159416735545  0.6296424123197661  0.0999598570169037
  0.2222137387441283  0.6666462532040059  0.1046364694762718
  0.2592380780289065  0.7407169898118279  0.1061318465812329
  0.2222412118424552  0.7777435461914682  0.1105191698650455
  0.2592809495764010  0.8518226823709899  0.1119765830384037
  0.2222580040752441  0.8888828878543394  0.1136256076771915
  0.2593122526495136  0.9629744113943191  0.1130247962386337
  0.3333975411324196  1.0000268359501805  0.1123894750278117
  0.3704406819098553  0.0741057830418609  0.1105247641137718
  0.3334111701791878  0.1111580825572659  0.1087125403478525
  0.3704435362034066  0.1852210060524815  0.1058936247501386
  0.3333905884967454  0.2222446820632224  0.1033532412601471
  0.3704311481047421  0.2963211179688942  0.1015021864913201
  0.3333592746119183  0.3333172862127470  0.0990000698328688
  0.3703814782281746  0.4073841756845217  0.0977063076398619
  0.3333077380370776  0.4443867203396705  0.0954577628313503
  0.3703499963873485  0.5184688994895871  0.0958081431122986
  0.3333018058452587  0.5555373298356848  0.0953431820811928
  0.3703280910832751  0.6296201348463510  0.0963576241826474
  0.3332876873384610  0.6666855258415439  0.0976746135112077
  0.3703464766490502  0.7407420903390257  0.1007368781917603
  0.3333238556799979  0.7777762189600490  0.1044519139953948
  0.3703721106018729  0.8518079318933989  0.1083241107041233
  0.3333620041991819  0.8888659578172644  0.1111406012714569
  0.3704136826558064  0.9629477121223139  0.1121976352444859
  0.4444924030692897 -0.0000184667081954  0.1116076845122584
  0.4815397950963081  0.0740590357161036  0.1099551054138276
  0.4445218842236984  0.1111312820823010  0.1088080684226158
  0.4815719096615481  0.1851764594816902  0.1052655516778715
  0.4445397295288199  0.2222574501727115  0.1045299665007037
  0.4815804314907298  0.2963188654682074  0.1018087493769547
  0.4445273379901987  0.3333643995327163  0.1012976525045127
  0.4815629807661295  0.4074166754805195  0.0995504824940859
  0.4444778453995865  0.4444257710697758  0.0988068490917849
  0.4815189001538916  0.5184862140704529  0.0984325493485637
  0.4444358047597898  0.5554959460905070  0.0977563053339924
  0.4814710299975311  0.6295623428503482  0.0989288338935630
  0.4444241257013135  0.6666212392560745  0.0986029966639561
  0.4814757430452499  0.7406804815348575  0.1018842329493920
  0.4444328353169271  0.7777487416498029  0.1031133740193317
  0.4814742566259904  0.8517640637599074  0.1075956718971471
  0.4444567207001766  0.8888320632945739  0.1093435021839659
  0.4815025687842133  0.9629011545531816  0.1114247608485624
  0.5555841586729796 -0.0000649032081902  0.1120261598387895
  0.5926373158478047  0.0740208095476989  0.1111535319900485
  0.5556256616537318  0.1110879749144759  0.1087450177327210
  0.5926736384796756  0.1851296951298212  0.1053207508892445
  0.5556466139742380  0.2221747574863057  0.1028710079668114
  0.5926903555609631  0.2962332309451161  0.1003296276339667
  0.5556654430734030  0.3333119420097037  0.0995292907592786
  0.5926928230280116  0.4073744772387585  0.0975369715860993
  0.5556425269912572  0.4444300111256017  0.0977669140837840
  0.5926857231020485  0.5185007441280617  0.0965678666122037
  0.5556185087908410  0.5555212245766887  0.0978801165936188
  0.5926566327052367  0.6295979908649924  0.0982027264697121
  0.5555768998866207  0.6666076449799486  0.0998089976258836
  0.5926262576535293  0.7406856336735709  0.1016134133799068
  0.5555636401099702  0.7777069924252348  0.1040386572159841
  0.5925910449575240  0.8517454065933758  0.1075924350294511
  0.5555528783810645  0.8887832352681175  0.1096462877164498
  0.5925970292823264  0.9628554901019840  0.1120312584525753
  0.6666840546876469 -0.0000884056993959  0.1128157963609222
  0.7037384828219969  0.0740058288392437  0.1134977092085592
  0.6667206791684667  0.1110705776801720  0.1118799280390127
  0.7037605751199596  0.1851560629787483  0.1104158618957832
  0.6667607247447849  0.2221832065132368  0.1064863544127411
  0.7037868258851754  0.2962501921513679  0.1052331519207472
  0.6667701112152495  0.3332653862159279  0.1014390141952770
  0.7038013080566206  0.4073541613574259  0.1007185638226495
  0.6667951950098536  0.4444124468827193  0.0973268958650082
  0.7038392777449898  0.5185006651231341  0.0968637588260124
  0.6667835804533343  0.5555462019553905  0.0956512118163336
  0.7038052194909802  0.6296182181184300  0.0967992103689147
  0.6667569395029204  0.6666769573136486  0.0973550662661677
  0.7038093750350438  0.7407569633356238  0.0986832246697265
  0.6667373043017963  0.7777687729841324  0.1010690166031910
  0.7037495935959097  0.8518230046406281  0.1044639570546992
  0.6666940941308650  0.8888127667212492  0.1081242131869753
  0.7037232665626312  0.9628672646886813  0.1112861151071459
  0.7778160033545010 -0.0000578930856359  0.1116804547213818
  0.8148753179823839  0.0740209180832882  0.1137661343221458
  0.7778322676663260  0.1110669309629365  0.1142572389906381
  0.8148787754553076  0.1851567521862660  0.1144016263221087
  0.7778341852244156  0.2222002322756170  0.1125739449594953
  0.8148575236548179  0.2962790740663043  0.1122393158325651
  0.7778167915535334  0.3332908440552769  0.1089120789792588
  0.8148388981910749  0.4073657569681968  0.1092015021262947
  0.7778321231782750  0.4443926211871502  0.1050745104103468
  0.8148466153945256  0.5184785781543712  0.1057886651114929
  0.7778471469104723  0.5555176865543062  0.1013871039624600
  0.8148732760358779  0.6296091832400106  0.1032306867587977
  0.7778708448835696  0.6666762692463963  0.1001345824437090
  0.8148933069986019  0.7407499828588473  0.1021754135805943
  0.7778861865211447  0.7778131533056848  0.1004813297187267
  0.8148947774450118  0.8518462367141558  0.1034705652665233
  0.7778533543515813  0.8888954595528576  0.1051289826608560
  0.8148570847591348  0.9629190271719795  0.1091820144380352
  0.8889490212202521  0.9999866464638704  0.1102191590750270
  0.9260125529862371  0.0740591405905039  0.1118900989666139
  0.8889728373141774  0.1110927403859223  0.1135346858140097
  0.9260380670977811  0.1851800047308648  0.1138005186720615
  0.8889820862634550  0.2222137191006699  0.1146310235335982
  0.9260309788051461  0.2962993350726009  0.1143232702679697
  0.8889501438804523  0.3333225631991047  0.1140574996028525
  0.9259839625063063  0.4073947187203072  0.1140662248098744
  0.8888900695367292  0.4444033261444917  0.1126659549744828
  0.9259160276248213  0.5184771218661069  0.1131343518094035
  0.8888589245020085  0.5555012402580264  0.1106228415004392
  0.9258899309758222  0.6295781043936609  0.1115809699655188
  0.8888649324564371  0.6666175250568491  0.1085415073704332
  0.9258922150481557  0.7406900176035177  0.1098893160467464
  0.8888865524403031  0.7777378226766377  0.1069060354970927
  0.9259307985979973  0.8518036770859672  0.1084419860661442
  0.8889215549916996  0.8888605722723095  0.1068828550680163
  0.9259643033210696  0.9629275555755938  0.1091862196673912
  0.3449383835857395  0.4885884423532543  0.3324987899250768
  0.2731709661408958  0.4491528068663920  0.3049983570332016
  0.2544960332086149  0.3804566812656153  0.3071463805556512
  0.3146520785717565  0.3769948065968146  0.3357976910783251
  0.3801585310201626  0.5601357545498494  0.3515060662278617
  0.4520037653834225  0.5955959531368515  0.3707327138584952
  0.4908368017440400  0.6660321659706550  0.4006932699299554
  0.5599306678273990  0.6841287872409940  0.4016312415794243
  0.5637355054504356  0.6249212020329327  0.3720116626378336
  0.6260794387535925  0.6249157950687900  0.3535626463268114
  0.6251069540643460  0.5626393432019577  0.3337062585823465
  0.6850244523687488  0.5583386014804377  0.3058210345868874
  0.6662245536227009  0.4895783198021680  0.3062168052076567
  0.5946375599466804  0.4509772654682490  0.3345361910943299
  0.6941378112569871  0.6919083895095846  0.3557139973400671
  0.7023698854073105  0.7526227739441551  0.3159960555361133
  0.7663069405303650  0.8151505917247170  0.3173643913916435
  0.8244098503421091  0.8184110562395037  0.3567765325429136
  0.8173221072226436  0.7588040424427084  0.3967233449153945
  0.7528888236100435  0.6967383051704641  0.3971333417308789
  0.3138591966272516  0.3152936764730864  0.3583270824501783
  0.3762798812912430  0.3159651388632104  0.3781177620412626
  0.3803332991027746  0.2577050032366380  0.4108258425746407
  0.4494361285918938  0.2758187062032904  0.4098904031052092
  0.4879232111260088  0.3452915664702619  0.3768005373734623
  0.5594492380063034  0.3799803548560083  0.3561121902011521
  0.5984558271765555  0.3410043780068496  0.3582688138085520
  0.5716586028753949  0.2750738506290875  0.3195799733061056
  0.6086243379923209  0.2389934316351912  0.3211032450708398
  0.6741884294831253  0.2684678592972089  0.3596108770698582
  0.7016401717333202  0.3337879374270915  0.3984219962355212
  0.6638791555727407  0.3690789543541189  0.3986971448830533
  0.2459508061139466  0.2481924263807849  0.3617116858386276
  0.1873663459474917  0.2438100597073867  0.4029826363263794
  0.1230755064790388  0.1815902626139646  0.4039154033127833
  0.1159798030471022  0.1215016973509041  0.3652835218703860
  0.1738917018145809  0.1244207179068382  0.3257284009643973
  0.2377524218147455  0.1870252153792726  0.3232446692418864
  0.3405015513070973  0.5984929449703471  0.3526254289046202
  0.2748481029770659  0.5698983293521198  0.3927118876955942
  0.2357786196272157  0.6037981084136995  0.3905654788676592
  0.2622683900788195  0.6685607047709510  0.3506311524494726
  0.3282594145880817  0.6988871516079630  0.3131578693607304
  0.3663933273415170  0.6639901595574508  0.3130964161405245
  0.3717171450369432  0.4440842813570355  0.3452939452627127
  0.5680568552917795  0.4958761892085108  0.3452915004089835
  0.4431929201852644  0.3715916754302589  0.3621534936259889
  0.4966562460464510  0.5688842426044656  0.3577693183249604
  0.2417011453770763  0.4714502975811057  0.2851838130682653
  0.2048465004849190  0.3360026894177038  0.2895503202385630
  0.6041033226747290  0.7334481122743978  0.4208387551821476
  0.7345678871449461  0.6022717479644852  0.2868607203700104
  0.6974975053360695  0.4666992552753874  0.2877512310499187
  0.6585116306155711  0.7503344839491016  0.2823342151050748
  0.7709840574653389  0.8610302403855051  0.2859794735187379
  0.8746405341010614  0.8667623320025101  0.3559695960134799
  0.8620205990659110  0.7605887537485584  0.4280018073483324
  0.7477518442546283  0.6512482275702252  0.4299689266472679
  0.3362906449635032  0.2090412349099283  0.4319774820898269
  0.4719517930090054  0.2445916970841951  0.4300897208692916
  0.5219453527019988  0.2525101484370021  0.2867072593299056
  0.5866551046755691  0.1882518981613045  0.2906215755363755
  0.7035982396103601  0.2409435112443711  0.3590172636678327
  0.7525499849498447  0.3573694093914852  0.4289035460491215
  0.6851382613419441  0.4191183775298036  0.4306468192453741
  0.1925421813493442  0.2897779236816196  0.4346544725451642
  0.0785095235996161  0.1800877351574096  0.4352065597775628
  0.0658813180083913  0.0730051762041891  0.3656922345660988
  0.1691285508402046  0.0781171589348551  0.2953337241262345
  0.2815778022932881  0.1889901816177882  0.2898138942381084
  0.2543284246522690  0.5203864657103583  0.4256817544497304
  0.1845694610348445  0.5795340387374006  0.4203540996925844
  0.2317776412170189  0.6949336659740439  0.3482380605291637
  0.3495505072017060  0.7492449206913263  0.2819367183174341
  0.4161889117760067  0.6870459405136472  0.2803968769368302
  0.4686186780144056  0.6979800079123448  0.4189371160644203
  0.4699138280060458  0.4701287746495462  0.3529588934992904
 
  0.00000000E+00  0.00000000E+00  0.00000000E+00
  0.00000000E+00  0.00000000E+00  0.00000000E+00
  0.00000000E+00  0.00000000E+00  0.00000000E+00
  0.00000000E+00  0.00000000E+00  0.00000000E+00
  0.00000000E+00  0.00000000E+00  0.00000000E+00
  0.00000000E+00  0.00000000E+00  0.00000000E+00
  0.00000000E+00  0.00000000E+00  0.00000000E+00
  0.00000000E+00  0.00000000E+00  0.00000000E+00
  0.00000000E+00  0.00000000E+00  0.00000000E+00
  0.00000000E+00  0.00000000E+00  0.00000000E+00
  0.00000000E+00  0.00000000E+00  0.00000000E+00
  0.00000000E+00  0.00000000E+00  0.00000000E+00
  0.00000000E+00  0.00000000E+00  0.00000000E+00
  0.00000000E+00  0.00000000E+00  0.00000000E+00
  0.00000000E+00  0.00000000E+00  0.00000000E+00
  0.00000000E+00  0.00000000E+00  0.00000000E+00
  0.00000000E+00  0.00000000E+00  0.00000000E+00
  0.00000000E+00  0.00000000E+00  0.00000000E+00
  0.00000000E+00  0.00000000E+00  0.00000000E+00
  0.00000000E+00  0.00000000E+00  0.00000000E+00
  0.00000000E+00  0.00000000E+00  0.00000000E+00
  0.00000000E+00  0.00000000E+00  0.00000000E+00
  0.00000000E+00  0.00000000E+00  0.00000000E+00
  0.00000000E+00  0.00000000E+00  0.00000000E+00
  0.00000000E+00  0.00000000E+00  0.00000000E+00
  0.00000000E+00  0.00000000E+00  0.00000000E+00
  0.00000000E+00  0.00000000E+00  0.00000000E+00
  0.00000000E+00  0.00000000E+00  0.00000000E+00
  0.00000000E+00  0.00000000E+00  0.00000000E+00
  0.00000000E+00  0.00000000E+00  0.00000000E+00
  0.00000000E+00  0.00000000E+00  0.00000000E+00
  0.00000000E+00  0.00000000E+00  0.00000000E+00
  0.00000000E+00  0.00000000E+00  0.00000000E+00
  0.00000000E+00  0.00000000E+00  0.00000000E+00
  0.00000000E+00  0.00000000E+00  0.00000000E+00
  0.00000000E+00  0.00000000E+00  0.00000000E+00
  0.00000000E+00  0.00000000E+00  0.00000000E+00
  0.00000000E+00  0.00000000E+00  0.00000000E+00
  0.00000000E+00  0.00000000E+00  0.00000000E+00
  0.00000000E+00  0.00000000E+00  0.00000000E+00
  0.00000000E+00  0.00000000E+00  0.00000000E+00
  0.00000000E+00  0.00000000E+00  0.00000000E+00
  0.00000000E+00  0.00000000E+00  0.00000000E+00
  0.00000000E+00  0.00000000E+00  0.00000000E+00
  0.00000000E+00  0.00000000E+00  0.00000000E+00
  0.00000000E+00  0.00000000E+00  0.00000000E+00
  0.00000000E+00  0.00000000E+00  0.00000000E+00
  0.00000000E+00  0.00000000E+00  0.00000000E+00
  0.00000000E+00  0.00000000E+00  0.00000000E+00
  0.00000000E+00  0.00000000E+00  0.00000000E+00
  0.00000000E+00  0.00000000E+00  0.00000000E+00
  0.00000000E+00  0.00000000E+00  0.00000000E+00
  0.00000000E+00  0.00000000E+00  0.00000000E+00
  0.00000000E+00  0.00000000E+00  0.00000000E+00
  0.00000000E+00  0.00000000E+00  0.00000000E+00
  0.00000000E+00  0.00000000E+00  0.00000000E+00
  0.00000000E+00  0.00000000E+00  0.00000000E+00
  0.00000000E+00  0.00000000E+00  0.00000000E+00
  0.00000000E+00  0.00000000E+00  0.00000000E+00
  0.00000000E+00  0.00000000E+00  0.00000000E+00
  0.00000000E+00  0.00000000E+00  0.00000000E+00
  0.00000000E+00  0.00000000E+00  0.00000000E+00
  0.00000000E+00  0.00000000E+00  0.00000000E+00
  0.00000000E+00  0.00000000E+00  0.00000000E+00
  0.00000000E+00  0.00000000E+00  0.00000000E+00
  0.00000000E+00  0.00000000E+00  0.00000000E+00
  0.00000000E+00  0.00000000E+00  0.00000000E+00
  0.00000000E+00  0.00000000E+00  0.00000000E+00
  0.00000000E+00  0.00000000E+00  0.00000000E+00
  0.00000000E+00  0.00000000E+00  0.00000000E+00
  0.00000000E+00  0.00000000E+00  0.00000000E+00
  0.00000000E+00  0.00000000E+00  0.00000000E+00
  0.00000000E+00  0.00000000E+00  0.00000000E+00
  0.00000000E+00  0.00000000E+00  0.00000000E+00
  0.00000000E+00  0.00000000E+00  0.00000000E+00
  0.00000000E+00  0.00000000E+00  0.00000000E+00
  0.00000000E+00  0.00000000E+00  0.00000000E+00
  0.00000000E+00  0.00000000E+00  0.00000000E+00
  0.00000000E+00  0.00000000E+00  0.00000000E+00
  0.00000000E+00  0.00000000E+00  0.00000000E+00
  0.00000000E+00  0.00000000E+00  0.00000000E+00
  0.00000000E+00  0.00000000E+00  0.00000000E+00
  0.00000000E+00  0.00000000E+00  0.00000000E+00
  0.00000000E+00  0.00000000E+00  0.00000000E+00
  0.00000000E+00  0.00000000E+00  0.00000000E+00
  0.00000000E+00  0.00000000E+00  0.00000000E+00
  0.00000000E+00  0.00000000E+00  0.00000000E+00
  0.00000000E+00  0.00000000E+00  0.00000000E+00
  0.00000000E+00  0.00000000E+00  0.00000000E+00
  0.00000000E+00  0.00000000E+00  0.00000000E+00
  0.00000000E+00  0.00000000E+00  0.00000000E+00
  0.00000000E+00  0.00000000E+00  0.00000000E+00
  0.00000000E+00  0.00000000E+00  0.00000000E+00
  0.00000000E+00  0.00000000E+00  0.00000000E+00
  0.00000000E+00  0.00000000E+00  0.00000000E+00
  0.00000000E+00  0.00000000E+00  0.00000000E+00
  0.00000000E+00  0.00000000E+00  0.00000000E+00
  0.00000000E+00  0.00000000E+00  0.00000000E+00
  0.00000000E+00  0.00000000E+00  0.00000000E+00
  0.00000000E+00  0.00000000E+00  0.00000000E+00
  0.00000000E+00  0.00000000E+00  0.00000000E+00
  0.00000000E+00  0.00000000E+00  0.00000000E+00
  0.00000000E+00  0.00000000E+00  0.00000000E+00
  0.00000000E+00  0.00000000E+00  0.00000000E+00
  0.00000000E+00  0.00000000E+00  0.00000000E+00
  0.00000000E+00  0.00000000E+00  0.00000000E+00
  0.00000000E+00  0.00000000E+00  0.00000000E+00
  0.00000000E+00  0.00000000E+00  0.00000000E+00
  0.00000000E+00  0.00000000E+00  0.00000000E+00
  0.00000000E+00  0.00000000E+00  0.00000000E+00
  0.00000000E+00  0.00000000E+00  0.00000000E+00
  0.00000000E+00  0.00000000E+00  0.00000000E+00
  0.00000000E+00  0.00000000E+00  0.00000000E+00
  0.00000000E+00  0.00000000E+00  0.00000000E+00
  0.00000000E+00  0.00000000E+00  0.00000000E+00
  0.00000000E+00  0.00000000E+00  0.00000000E+00
  0.00000000E+00  0.00000000E+00  0.00000000E+00
  0.00000000E+00  0.00000000E+00  0.00000000E+00
  0.00000000E+00  0.00000000E+00  0.00000000E+00
  0.00000000E+00  0.00000000E+00  0.00000000E+00
  0.00000000E+00  0.00000000E+00  0.00000000E+00
  0.00000000E+00  0.00000000E+00  0.00000000E+00
  0.00000000E+00  0.00000000E+00  0.00000000E+00
  0.00000000E+00  0.00000000E+00  0.00000000E+00
  0.00000000E+00  0.00000000E+00  0.00000000E+00
  0.00000000E+00  0.00000000E+00  0.00000000E+00
  0.00000000E+00  0.00000000E+00  0.00000000E+00
  0.00000000E+00  0.00000000E+00  0.00000000E+00
  0.00000000E+00  0.00000000E+00  0.00000000E+00
  0.00000000E+00  0.00000000E+00  0.00000000E+00
  0.00000000E+00  0.00000000E+00  0.00000000E+00
  0.00000000E+00  0.00000000E+00  0.00000000E+00
  0.00000000E+00  0.00000000E+00  0.00000000E+00
  0.00000000E+00  0.00000000E+00  0.00000000E+00
  0.00000000E+00  0.00000000E+00  0.00000000E+00
  0.00000000E+00  0.00000000E+00  0.00000000E+00
  0.00000000E+00  0.00000000E+00  0.00000000E+00
  0.00000000E+00  0.00000000E+00  0.00000000E+00
  0.00000000E+00  0.00000000E+00  0.00000000E+00
  0.00000000E+00  0.00000000E+00  0.00000000E+00
  0.00000000E+00  0.00000000E+00  0.00000000E+00
  0.00000000E+00  0.00000000E+00  0.00000000E+00
  0.00000000E+00  0.00000000E+00  0.00000000E+00
  0.00000000E+00  0.00000000E+00  0.00000000E+00
  0.00000000E+00  0.00000000E+00  0.00000000E+00
  0.00000000E+00  0.00000000E+00  0.00000000E+00
  0.00000000E+00  0.00000000E+00  0.00000000E+00
  0.00000000E+00  0.00000000E+00  0.00000000E+00
  0.00000000E+00  0.00000000E+00  0.00000000E+00
  0.00000000E+00  0.00000000E+00  0.00000000E+00
  0.00000000E+00  0.00000000E+00  0.00000000E+00
  0.00000000E+00  0.00000000E+00  0.00000000E+00
  0.00000000E+00  0.00000000E+00  0.00000000E+00
  0.00000000E+00  0.00000000E+00  0.00000000E+00
  0.00000000E+00  0.00000000E+00  0.00000000E+00
  0.00000000E+00  0.00000000E+00  0.00000000E+00
  0.00000000E+00  0.00000000E+00  0.00000000E+00
  0.00000000E+00  0.00000000E+00  0.00000000E+00
  0.00000000E+00  0.00000000E+00  0.00000000E+00
  0.00000000E+00  0.00000000E+00  0.00000000E+00
  0.00000000E+00  0.00000000E+00  0.00000000E+00
  0.00000000E+00  0.00000000E+00  0.00000000E+00
  0.00000000E+00  0.00000000E+00  0.00000000E+00
  0.00000000E+00  0.00000000E+00  0.00000000E+00
  0.00000000E+00  0.00000000E+00  0.00000000E+00
  0.00000000E+00  0.00000000E+00  0.00000000E+00
  0.00000000E+00  0.00000000E+00  0.00000000E+00
  0.00000000E+00  0.00000000E+00  0.00000000E+00
  0.00000000E+00  0.00000000E+00  0.00000000E+00
  0.00000000E+00  0.00000000E+00  0.00000000E+00
  0.00000000E+00  0.00000000E+00  0.00000000E+00
  0.00000000E+00  0.00000000E+00  0.00000000E+00
  0.00000000E+00  0.00000000E+00  0.00000000E+00
  0.00000000E+00  0.00000000E+00  0.00000000E+00
  0.00000000E+00  0.00000000E+00  0.00000000E+00
  0.00000000E+00  0.00000000E+00  0.00000000E+00
  0.00000000E+00  0.00000000E+00  0.00000000E+00
  0.00000000E+00  0.00000000E+00  0.00000000E+00
  0.00000000E+00  0.00000000E+00  0.00000000E+00
  0.00000000E+00  0.00000000E+00  0.00000000E+00
  0.00000000E+00  0.00000000E+00  0.00000000E+00
  0.00000000E+00  0.00000000E+00  0.00000000E+00
  0.00000000E+00  0.00000000E+00  0.00000000E+00
  0.00000000E+00  0.00000000E+00  0.00000000E+00
  0.00000000E+00  0.00000000E+00  0.00000000E+00
  0.00000000E+00  0.00000000E+00  0.00000000E+00
  0.00000000E+00  0.00000000E+00  0.00000000E+00
  0.00000000E+00  0.00000000E+00  0.00000000E+00
  0.00000000E+00  0.00000000E+00  0.00000000E+00
  0.00000000E+00  0.00000000E+00  0.00000000E+00
  0.00000000E+00  0.00000000E+00  0.00000000E+00
  0.00000000E+00  0.00000000E+00  0.00000000E+00
  0.00000000E+00  0.00000000E+00  0.00000000E+00
  0.00000000E+00  0.00000000E+00  0.00000000E+00
  0.00000000E+00  0.00000000E+00  0.00000000E+00
  0.00000000E+00  0.00000000E+00  0.00000000E+00
  0.00000000E+00  0.00000000E+00  0.00000000E+00
  0.00000000E+00  0.00000000E+00  0.00000000E+00
  0.00000000E+00  0.00000000E+00  0.00000000E+00
  0.00000000E+00  0.00000000E+00  0.00000000E+00
  0.00000000E+00  0.00000000E+00  0.00000000E+00
  0.00000000E+00  0.00000000E+00  0.00000000E+00
  0.00000000E+00  0.00000000E+00  0.00000000E+00
  0.00000000E+00  0.00000000E+00  0.00000000E+00
  0.00000000E+00  0.00000000E+00  0.00000000E+00
  0.00000000E+00  0.00000000E+00  0.00000000E+00
  0.00000000E+00  0.00000000E+00  0.00000000E+00
  0.00000000E+00  0.00000000E+00  0.00000000E+00
  0.00000000E+00  0.00000000E+00  0.00000000E+00
  0.00000000E+00  0.00000000E+00  0.00000000E+00
  0.00000000E+00  0.00000000E+00  0.00000000E+00
  0.00000000E+00  0.00000000E+00  0.00000000E+00
  0.00000000E+00  0.00000000E+00  0.00000000E+00
  0.00000000E+00  0.00000000E+00  0.00000000E+00
  0.00000000E+00  0.00000000E+00  0.00000000E+00
  0.00000000E+00  0.00000000E+00  0.00000000E+00
  0.00000000E+00  0.00000000E+00  0.00000000E+00
  0.00000000E+00  0.00000000E+00  0.00000000E+00
  0.00000000E+00  0.00000000E+00  0.00000000E+00
  0.00000000E+00  0.00000000E+00  0.00000000E+00
  0.00000000E+00  0.00000000E+00  0.00000000E+00
  0.00000000E+00  0.00000000E+00  0.00000000E+00
  0.00000000E+00  0.00000000E+00  0.00000000E+00
  0.00000000E+00  0.00000000E+00  0.00000000E+00
  0.00000000E+00  0.00000000E+00  0.00000000E+00
  0.00000000E+00  0.00000000E+00  0.00000000E+00
  0.00000000E+00  0.00000000E+00  0.00000000E+00
  0.00000000E+00  0.00000000E+00  0.00000000E+00
  0.00000000E+00  0.00000000E+00  0.00000000E+00
  0.00000000E+00  0.00000000E+00  0.00000000E+00
  0.00000000E+00  0.00000000E+00  0.00000000E+00
  0.00000000E+00  0.00000000E+00  0.00000000E+00
  0.00000000E+00  0.00000000E+00  0.00000000E+00
  0.00000000E+00  0.00000000E+00  0.00000000E+00
  0.00000000E+00  0.00000000E+00  0.00000000E+00
  0.00000000E+00  0.00000000E+00  0.00000000E+00
  0.00000000E+00  0.00000000E+00  0.00000000E+00
  0.00000000E+00  0.00000000E+00  0.00000000E+00
  0.00000000E+00  0.00000000E+00  0.00000000E+00
