 C  N Cu                                
   1.00000000000000     
    12.4693718655702206    0.0000000000000000    0.0000000000000000
    -0.0000000000000004   12.7712959164707005    0.0000000000000000
     0.0000000000000003    0.0000000000000000   19.8713392819153718
   C    N    Cu
    55     3     1
Direct
  0.0520949087662508  0.0476289161816001  0.1593969355782255
  0.1526607554595643  0.1024749241238128  0.1593765756647565
  0.1520933227039442  0.2137682323740882  0.1593047350155021
  0.0522811651006334  0.2687654130450901  0.1592477220120953
  0.2533027982443821  0.0479080096707057  0.1594142834795200
  0.3534941470225497  0.1038402894095067  0.1594354748213883
  0.3527771685639099  0.2161954198354971  0.1593644727443879
  0.2518041516529645  0.2697123635153776  0.1593011694718705
  0.4537196109951022  0.0481985697556525  0.1594627439456420
  0.5530140360562823  0.1060804757833320  0.1594511752816353
  0.5535576126668020  0.2193366658652494  0.1594158636878800
  0.4526078042569062  0.2753156922858400  0.1593751552328318
  0.6513070496797091  0.0477128751379877  0.1594639027021987
  0.7510457275608364  0.1036650075043599  0.1594344777130491
  0.7520465158793135  0.2161914428715916  0.1593752784030216
  0.6536009895771561  0.2756032851478464  0.1593820404473904
  0.8511670613042890  0.0478003253246315  0.1594064801152832
  0.9517529661331107  0.1023634366075315  0.1593723250979164
  0.9521930283293125  0.2137310391446026  0.1593017756814331
  0.8531412728949137  0.2693069637649158  0.1593047893470788
  0.0517953881533002  0.3802352004364370  0.1591947642592325
  0.1500909217326636  0.4362981909019815  0.1591818870543668
  0.1500606776445201  0.5476512291507315  0.1591788764963736
  0.0521403906965473  0.6036107954182572  0.1592032743303005
  0.2489519650498324  0.3809870538196126  0.1592404812716107
  0.3466018914538470  0.4378722306158140  0.1592698154547646
  0.3457130176107362  0.5494407023720718  0.1592790688558588
  0.2485856900928164  0.6041566977412491  0.1592418827075336
  0.7564570949452216  0.4361060396966208  0.1592900725807776
  0.7572474425462433  0.5480331541786215  0.1592857672382810
  0.8543696737216455  0.3808249657531655  0.1592561867402556
  0.9534673970369875  0.4363626919060994  0.1591795055888206
  0.9538259149098630  0.5474567361376281  0.1591749750942399
  0.8553005437004145  0.6029637761560389  0.1592485667026755
  0.0521784709125769  0.7150827342670737  0.1592564778111227
  0.1518612000383576  0.7706170769270571  0.1593023564358534
  0.0521247706490192  0.9365484549306561  0.1593998529730542
  0.2509236920249968  0.7152004461652484  0.1593082596958879
  0.3523447303193985  0.7675617465321911  0.1593858216942235
  0.3534801568561944  0.8798608484081337  0.1594313293650204
  0.2533645749054469  0.9359542451093907  0.1594155808869971
  0.4506354761434631  0.7070396457955784  0.1594018388542454
  0.5523407847526283  0.7619623037619477  0.1594504508462160
  0.5522899402250898  0.8762401015342994  0.1594819177199182
  0.4537511494371695  0.9350042196831493  0.1594684839569104
  0.6542909803398929  0.7071399038180697  0.1594008108835190
  0.7523921854215888  0.7674191478993482  0.1593724864937637
  0.7511877168496920  0.8796135246274196  0.1594318975589927
  0.6510765420649972  0.9345868387694942  0.1594822812878279
  0.8533410766782867  0.7142919411490597  0.1593043105690810
  0.9525219668770959  0.7701277566017882  0.1592973731872919
  0.8512005099640370  0.9358883131132363  0.1594068694412049
  0.1525055729437519  0.8817564818806483  0.1593736897404702
  0.9518304903983421  0.8815092691096192  0.1593644715931739
  0.4455024363230869  0.3852075611339538  0.1593326482301129
  0.4435379610228522  0.5990024135527228  0.1593701335414739
  0.6585726301401515  0.3844372514111165  0.1593715175412882
  0.6602777799247580  0.5995682439134755  0.1593657733677223
  0.5523771926340311  0.4913607143886894  0.1593909249783495
 
  0.00000000E+00  0.00000000E+00  0.00000000E+00
  0.00000000E+00  0.00000000E+00  0.00000000E+00
  0.00000000E+00  0.00000000E+00  0.00000000E+00
  0.00000000E+00  0.00000000E+00  0.00000000E+00
  0.00000000E+00  0.00000000E+00  0.00000000E+00
  0.00000000E+00  0.00000000E+00  0.00000000E+00
  0.00000000E+00  0.00000000E+00  0.00000000E+00
  0.00000000E+00  0.00000000E+00  0.00000000E+00
  0.00000000E+00  0.00000000E+00  0.00000000E+00
  0.00000000E+00  0.00000000E+00  0.00000000E+00
  0.00000000E+00  0.00000000E+00  0.00000000E+00
  0.00000000E+00  0.00000000E+00  0.00000000E+00
  0.00000000E+00  0.00000000E+00  0.00000000E+00
  0.00000000E+00  0.00000000E+00  0.00000000E+00
  0.00000000E+00  0.00000000E+00  0.00000000E+00
  0.00000000E+00  0.00000000E+00  0.00000000E+00
  0.00000000E+00  0.00000000E+00  0.00000000E+00
  0.00000000E+00  0.00000000E+00  0.00000000E+00
  0.00000000E+00  0.00000000E+00  0.00000000E+00
  0.00000000E+00  0.00000000E+00  0.00000000E+00
  0.00000000E+00  0.00000000E+00  0.00000000E+00
  0.00000000E+00  0.00000000E+00  0.00000000E+00
  0.00000000E+00  0.00000000E+00  0.00000000E+00
  0.00000000E+00  0.00000000E+00  0.00000000E+00
  0.00000000E+00  0.00000000E+00  0.00000000E+00
  0.00000000E+00  0.00000000E+00  0.00000000E+00
  0.00000000E+00  0.00000000E+00  0.00000000E+00
  0.00000000E+00  0.00000000E+00  0.00000000E+00
  0.00000000E+00  0.00000000E+00  0.00000000E+00
  0.00000000E+00  0.00000000E+00  0.00000000E+00
  0.00000000E+00  0.00000000E+00  0.00000000E+00
  0.00000000E+00  0.00000000E+00  0.00000000E+00
  0.00000000E+00  0.00000000E+00  0.00000000E+00
  0.00000000E+00  0.00000000E+00  0.00000000E+00
  0.00000000E+00  0.00000000E+00  0.00000000E+00
  0.00000000E+00  0.00000000E+00  0.00000000E+00
  0.00000000E+00  0.00000000E+00  0.00000000E+00
  0.00000000E+00  0.00000000E+00  0.00000000E+00
  0.00000000E+00  0.00000000E+00  0.00000000E+00
  0.00000000E+00  0.00000000E+00  0.00000000E+00
  0.00000000E+00  0.00000000E+00  0.00000000E+00
  0.00000000E+00  0.00000000E+00  0.00000000E+00
  0.00000000E+00  0.00000000E+00  0.00000000E+00
  0.00000000E+00  0.00000000E+00  0.00000000E+00
  0.00000000E+00  0.00000000E+00  0.00000000E+00
  0.00000000E+00  0.00000000E+00  0.00000000E+00
  0.00000000E+00  0.00000000E+00  0.00000000E+00
  0.00000000E+00  0.00000000E+00  0.00000000E+00
  0.00000000E+00  0.00000000E+00  0.00000000E+00
  0.00000000E+00  0.00000000E+00  0.00000000E+00
  0.00000000E+00  0.00000000E+00  0.00000000E+00
  0.00000000E+00  0.00000000E+00  0.00000000E+00
  0.00000000E+00  0.00000000E+00  0.00000000E+00
  0.00000000E+00  0.00000000E+00  0.00000000E+00
  0.00000000E+00  0.00000000E+00  0.00000000E+00
  0.00000000E+00  0.00000000E+00  0.00000000E+00
  0.00000000E+00  0.00000000E+00  0.00000000E+00
  0.00000000E+00  0.00000000E+00  0.00000000E+00
  0.00000000E+00  0.00000000E+00  0.00000000E+00
