 C  N Cr                                
   1.00000000000000     
     8.4020493151156543   -0.0000108274560444    0.0000003873506131
    -0.0000111152169830    8.4039672001481360   -0.0000022351210717
    -0.0000034184505309   -0.0000074639016152   17.8531369200383097
   C    N    Cr
    20     4     1
Direct
  0.5000122623370622  0.0862011561495189  0.1542529395584322
  0.3532090782665545  0.1670815834919207  0.1542411402297804
  0.6468070188480369  0.1670877920152704  0.1542209777666272
  0.7951746472459919  0.9160740423861506  0.1541519827922906
  0.7951667368947417  0.0838806128170137  0.1541510330365639
  0.9160272291365407  0.2047575379540005  0.1541505542040066
  0.8329160405496165  0.3532698786944242  0.1542126228962949
  0.2048532901859665  0.0838709942161288  0.1541731325153784
  0.0839905950566928  0.2047494676454244  0.1541619894516907
  0.1671051965583009  0.3532597409311589  0.1542279563612737
  0.0862654643998368  0.4999696444725478  0.1542362801034190
  0.1671118935059436  0.6466751825950168  0.1542254900304161
  0.3532209424878399  0.8328572460359509  0.1542447695831684
  0.2048612340273887  0.9160643783457668  0.1541718877723076
  0.0840007211035525  0.7951874963757750  0.1541560676266569
  0.6468189087489695  0.8328633845885410  0.1542276139968839
  0.8329227641930469  0.6466853028833142  0.1542130266646195
  0.9160374459589402  0.7951955979087409  0.1541467462161760
  0.5000156713773926  0.9137438232522516  0.1542572167156612
  0.9137625378854436  0.4999754169297632  0.1542289933109094
  0.6676663215126714  0.3324073581200951  0.1542509602602705
  0.3323539311406047  0.3323998949240342  0.1542698886478813
  0.3323616093363331  0.6675376776787102  0.1542733257229433
  0.6676740489623539  0.6675451505807483  0.1542578234941776
  0.5000139702112887  0.4999725565959023  0.1543085908629636
 
  0.00000000E+00  0.00000000E+00  0.00000000E+00
  0.00000000E+00  0.00000000E+00  0.00000000E+00
  0.00000000E+00  0.00000000E+00  0.00000000E+00
  0.00000000E+00  0.00000000E+00  0.00000000E+00
  0.00000000E+00  0.00000000E+00  0.00000000E+00
  0.00000000E+00  0.00000000E+00  0.00000000E+00
  0.00000000E+00  0.00000000E+00  0.00000000E+00
  0.00000000E+00  0.00000000E+00  0.00000000E+00
  0.00000000E+00  0.00000000E+00  0.00000000E+00
  0.00000000E+00  0.00000000E+00  0.00000000E+00
  0.00000000E+00  0.00000000E+00  0.00000000E+00
  0.00000000E+00  0.00000000E+00  0.00000000E+00
  0.00000000E+00  0.00000000E+00  0.00000000E+00
  0.00000000E+00  0.00000000E+00  0.00000000E+00
  0.00000000E+00  0.00000000E+00  0.00000000E+00
  0.00000000E+00  0.00000000E+00  0.00000000E+00
  0.00000000E+00  0.00000000E+00  0.00000000E+00
  0.00000000E+00  0.00000000E+00  0.00000000E+00
  0.00000000E+00  0.00000000E+00  0.00000000E+00
  0.00000000E+00  0.00000000E+00  0.00000000E+00
  0.00000000E+00  0.00000000E+00  0.00000000E+00
  0.00000000E+00  0.00000000E+00  0.00000000E+00
  0.00000000E+00  0.00000000E+00  0.00000000E+00
  0.00000000E+00  0.00000000E+00  0.00000000E+00
  0.00000000E+00  0.00000000E+00  0.00000000E+00
