 C  N Cr                                
   1.00000000000000     
     8.4649255284160621    0.0000000000000001    0.0000000000000000
    -0.0000000000000001    8.4648657354548043    0.0000000000000000
    -0.0000000000000002    0.0000000000000000   19.8713392818999957
   C    N    Cr
    23     1     1
Direct
  0.5001904801218857  0.0815911692641975  0.1527141370024464
  0.3542332074790182  0.1645003848968803  0.1552009780347168
  0.6443200386796554  0.1651048585378002  0.1510549209483882
  0.7975573581812020  0.9182340198777486  0.1527930640832546
  0.7944371697281669  0.0843129993578708  0.1510937293185770
  0.9158038996036252  0.2060137349434109  0.1514685931663398
  0.8302905054240298  0.3568873827372236  0.1514518860767423
  0.2046693549595007  0.0811232537227872  0.1531376158213431
  0.0811650657236336  0.2046300953289672  0.1531302490839377
  0.1645387819250473  0.3541944023356447  0.1551883256337020
  0.0816344978711725  0.5001477351922826  0.1526876820529009
  0.1651473127292494  0.6442829631057767  0.1510371687280339
  0.3569271391217875  0.8302480241794725  0.1514627074503564
  0.2060528162893072  0.9157642704438299  0.1514720311301077
  0.0843563580425189  0.7943937421818691  0.1510815792291224
  0.6499341286661131  0.8338194885749316  0.1550688843073182
  0.8338638224116642  0.6498839629936461  0.1550522413467179
  0.9182743822120282  0.7975132972301653  0.1527828998062468
  0.5019300008212845  0.9125560314960394  0.1528572958988821
  0.9125943878605330  0.5018861491508668  0.1528347110484511
  0.6623519364408011  0.3348116702466723  0.1524081112456644
  0.3343504383637544  0.3343154105218549  0.1608205527015577
  0.3348510431871351  0.6623111171382672  0.1524070637442854
  0.6713489801078411  0.6713010265417038  0.1596310590665934
  0.4995264539801506  0.4994857275882613  0.1765755228951078
 
  0.00000000E+00  0.00000000E+00  0.00000000E+00
  0.00000000E+00  0.00000000E+00  0.00000000E+00
  0.00000000E+00  0.00000000E+00  0.00000000E+00
  0.00000000E+00  0.00000000E+00  0.00000000E+00
  0.00000000E+00  0.00000000E+00  0.00000000E+00
  0.00000000E+00  0.00000000E+00  0.00000000E+00
  0.00000000E+00  0.00000000E+00  0.00000000E+00
  0.00000000E+00  0.00000000E+00  0.00000000E+00
  0.00000000E+00  0.00000000E+00  0.00000000E+00
  0.00000000E+00  0.00000000E+00  0.00000000E+00
  0.00000000E+00  0.00000000E+00  0.00000000E+00
  0.00000000E+00  0.00000000E+00  0.00000000E+00
  0.00000000E+00  0.00000000E+00  0.00000000E+00
  0.00000000E+00  0.00000000E+00  0.00000000E+00
  0.00000000E+00  0.00000000E+00  0.00000000E+00
  0.00000000E+00  0.00000000E+00  0.00000000E+00
  0.00000000E+00  0.00000000E+00  0.00000000E+00
  0.00000000E+00  0.00000000E+00  0.00000000E+00
  0.00000000E+00  0.00000000E+00  0.00000000E+00
  0.00000000E+00  0.00000000E+00  0.00000000E+00
  0.00000000E+00  0.00000000E+00  0.00000000E+00
  0.00000000E+00  0.00000000E+00  0.00000000E+00
  0.00000000E+00  0.00000000E+00  0.00000000E+00
  0.00000000E+00  0.00000000E+00  0.00000000E+00
  0.00000000E+00  0.00000000E+00  0.00000000E+00
