 C  N  V                                
   1.00000000000000     
     8.4367986165461808   -0.0000202695038392   -0.0000035672753378
    -0.0000199588717809    8.4372057779789991    0.0000018006779429
    -0.0000194559337239    0.0000023843370503   17.8404113092047503
   C    N    V 
    20     4     1
Direct
  0.5000089065028677  0.0861499203677719  0.1542390476153825
  0.3522171725875267  0.1663020778133266  0.1542351829036762
  0.6478079699016810  0.1663075778714289  0.1542176464110921
  0.7966295710047890  0.9160916641538114  0.1541188941969658
  0.7966246647941193  0.0838606307823681  0.1541196014217986
  0.9160002080989843  0.2033655188282575  0.1541191820945680
  0.8337102142768563  0.3522230345190849  0.1542099713158884
  0.2033983904348323  0.0838533868108642  0.1541379927244930
  0.0840204494312866  0.2033616771096182  0.1541289623230598
  0.1663121589620574  0.3522185473630611  0.1542251107565107
  0.0862892338496438  0.4999689779123451  0.1542266153472600
  0.1663176555551317  0.6477219416810083  0.1542242862667238
  0.3522200252448910  0.8336375080830010  0.1542387361082519
  0.2034031967111876  0.9160842824921134  0.1541376362331073
  0.0840279017599401  0.7965796106244336  0.1541249086257966
  0.6478108436725539  0.8336429137084537  0.1542204673195486
  0.8337158019383052  0.6477265018575987  0.1542083707986632
  0.9160074528378007  0.7965833405001946  0.1541147589284496
  0.5000190004515791  0.9137950412426905  0.1542418351573544
  0.9137388072482555  0.4999761179788111  0.1542178716579882
  0.6699661041883755  0.3300256223930610  0.1542893974528271
  0.3300559104906872  0.3300201288499037  0.1543085291620168
  0.3300618047216985  0.6699194752615343  0.1543126125623790
  0.6699721040246691  0.6699249009395467  0.1542921696128522
  0.5000140112413883  0.4999725184438809  0.1545032228241396
 
  0.00000000E+00  0.00000000E+00  0.00000000E+00
  0.00000000E+00  0.00000000E+00  0.00000000E+00
  0.00000000E+00  0.00000000E+00  0.00000000E+00
  0.00000000E+00  0.00000000E+00  0.00000000E+00
  0.00000000E+00  0.00000000E+00  0.00000000E+00
  0.00000000E+00  0.00000000E+00  0.00000000E+00
  0.00000000E+00  0.00000000E+00  0.00000000E+00
  0.00000000E+00  0.00000000E+00  0.00000000E+00
  0.00000000E+00  0.00000000E+00  0.00000000E+00
  0.00000000E+00  0.00000000E+00  0.00000000E+00
  0.00000000E+00  0.00000000E+00  0.00000000E+00
  0.00000000E+00  0.00000000E+00  0.00000000E+00
  0.00000000E+00  0.00000000E+00  0.00000000E+00
  0.00000000E+00  0.00000000E+00  0.00000000E+00
  0.00000000E+00  0.00000000E+00  0.00000000E+00
  0.00000000E+00  0.00000000E+00  0.00000000E+00
  0.00000000E+00  0.00000000E+00  0.00000000E+00
  0.00000000E+00  0.00000000E+00  0.00000000E+00
  0.00000000E+00  0.00000000E+00  0.00000000E+00
  0.00000000E+00  0.00000000E+00  0.00000000E+00
  0.00000000E+00  0.00000000E+00  0.00000000E+00
  0.00000000E+00  0.00000000E+00  0.00000000E+00
  0.00000000E+00  0.00000000E+00  0.00000000E+00
  0.00000000E+00  0.00000000E+00  0.00000000E+00
  0.00000000E+00  0.00000000E+00  0.00000000E+00
