 C  N Mn                                
   1.00000000000000     
    12.4844363983775022    0.0000000000000000    0.0000000000000000
    -0.0000000000000004   12.7641409900022893    0.0000000000000000
     0.0000000000000003    0.0000000000000000   20.0000000000000000
   C    N    Mn
    54     4     1
Direct
  0.0522051548114831  0.0474503530274973  0.1583045642520196
  0.1526026876759111  0.1022538192651649  0.1583003293395779
  0.1520159159755725  0.2136664581856313  0.1582554618364255
  0.0522035982757615  0.2688448940186685  0.1582117757671086
  0.2532187693017020  0.0478473592121694  0.1583564163848286
  0.3533438600508719  0.1037590652778202  0.1583907179114238
  0.3522391285871343  0.2160642979818067  0.1583705415678572
  0.2509826583786847  0.2692280571593283  0.1583017051889530
  0.4536584304285106  0.0485228948415175  0.1584166848017804
  0.5522068268175069  0.1069903563765749  0.1584361221190798
  0.5522092584350541  0.2214594204376707  0.1584312024953035
  0.4501907389589114  0.2758152780400392  0.1584179409335088
  0.6507634704154310  0.0485129537615888  0.1584249801373870
  0.7510687883674352  0.1037523223793738  0.1584023058394570
  0.7521601186932314  0.2160521054981892  0.1583731800100639
  0.6542169048947835  0.2758144104503551  0.1584220655311032
  0.8511930079821520  0.0478369527383813  0.1583721818892959
  0.9518101800368457  0.1022506331348498  0.1583000605113452
  0.9523806725701763  0.2136631104417205  0.1582467131509416
  0.8534244007791740  0.2692278257434705  0.1582913479508624
  0.0522064482592692  0.3800609597456552  0.1581671325894208
  0.1502761123219893  0.4363163163401200  0.1581626750227128
  0.1502844900412656  0.5474336859488945  0.1581396853505920
  0.0522037085014541  0.6036884270473513  0.1581335253155912
  0.2489189008008778  0.3806776227163760  0.1582670458886899
  0.3462329693211641  0.4360683207184688  0.1583211708410368
  0.3462393320178874  0.5476807222516648  0.1582980015588584
  0.2489192355221793  0.6030651940121766  0.1582203361029994
  0.7581800959740800  0.4360610270346265  0.1583390289325529
  0.7581653550976337  0.5476776196714658  0.1583043477710666
  0.8554909333116100  0.3806714533693110  0.1582716386846111
  0.9541381057933542  0.4363215489476400  0.1581687584798593
  0.9541229988459284  0.5474405659467180  0.1581416123842544
  0.8554857740336148  0.6030628453820802  0.1582202645616715
  0.0522154472521729  0.7149045014349709  0.1582037189757988
  0.1520460316061833  0.7700795781752151  0.1582574789539662
  0.0522141069333933  0.9362752739896532  0.1582978168328782
  0.2509878601043417  0.7145088068188400  0.1582752602674512
  0.3522370344396880  0.7676929238968208  0.1583503664343550
  0.3533457383864092  0.8799943657695865  0.1583982214812243
  0.2532106490805089  0.9358989103375938  0.1583565861417717
  0.4501930607336246  0.7079640306352275  0.1583734951462439
  0.5522048159946171  0.7623381880140879  0.1583930466256321
  0.5522162340522203  0.8767893755331154  0.1583974764272668
  0.4536590317733402  0.9352053305239874  0.1584135137157023
  0.6542163813685571  0.7079607585603349  0.1583743681090714
  0.7521736173324332  0.7676880137571929  0.1583475458901234
  0.7510744590879060  0.8799825241396579  0.1583953459757978
  0.6507637585179458  0.9352004847369925  0.1584114488692503
  0.8534294241264468  0.7145087742331303  0.1582665291253597
  0.9523826812663085  0.7700781205142149  0.1582435137416171
  0.8512068293218201  0.9358905505540962  0.1583636999504603
  0.1525980922915826  0.8814695305035987  0.1582982438780428
  0.9518254027228763  0.8814684498641591  0.1582950968275699
  0.4442645170766646  0.3844155610710150  0.1584126463108071
  0.4442666554974982  0.5993639473057886  0.1583698517450397
  0.6601459624570525  0.3844118473052661  0.1584238077759530
  0.6601386676457104  0.5993572135479606  0.1583732103285713
  0.5522045996415323  0.4918940577900427  0.1584268333677929
 
  0.00000000E+00  0.00000000E+00  0.00000000E+00
  0.00000000E+00  0.00000000E+00  0.00000000E+00
  0.00000000E+00  0.00000000E+00  0.00000000E+00
  0.00000000E+00  0.00000000E+00  0.00000000E+00
  0.00000000E+00  0.00000000E+00  0.00000000E+00
  0.00000000E+00  0.00000000E+00  0.00000000E+00
  0.00000000E+00  0.00000000E+00  0.00000000E+00
  0.00000000E+00  0.00000000E+00  0.00000000E+00
  0.00000000E+00  0.00000000E+00  0.00000000E+00
  0.00000000E+00  0.00000000E+00  0.00000000E+00
  0.00000000E+00  0.00000000E+00  0.00000000E+00
  0.00000000E+00  0.00000000E+00  0.00000000E+00
  0.00000000E+00  0.00000000E+00  0.00000000E+00
  0.00000000E+00  0.00000000E+00  0.00000000E+00
  0.00000000E+00  0.00000000E+00  0.00000000E+00
  0.00000000E+00  0.00000000E+00  0.00000000E+00
  0.00000000E+00  0.00000000E+00  0.00000000E+00
  0.00000000E+00  0.00000000E+00  0.00000000E+00
  0.00000000E+00  0.00000000E+00  0.00000000E+00
  0.00000000E+00  0.00000000E+00  0.00000000E+00
  0.00000000E+00  0.00000000E+00  0.00000000E+00
  0.00000000E+00  0.00000000E+00  0.00000000E+00
  0.00000000E+00  0.00000000E+00  0.00000000E+00
  0.00000000E+00  0.00000000E+00  0.00000000E+00
  0.00000000E+00  0.00000000E+00  0.00000000E+00
  0.00000000E+00  0.00000000E+00  0.00000000E+00
  0.00000000E+00  0.00000000E+00  0.00000000E+00
  0.00000000E+00  0.00000000E+00  0.00000000E+00
  0.00000000E+00  0.00000000E+00  0.00000000E+00
  0.00000000E+00  0.00000000E+00  0.00000000E+00
  0.00000000E+00  0.00000000E+00  0.00000000E+00
  0.00000000E+00  0.00000000E+00  0.00000000E+00
  0.00000000E+00  0.00000000E+00  0.00000000E+00
  0.00000000E+00  0.00000000E+00  0.00000000E+00
  0.00000000E+00  0.00000000E+00  0.00000000E+00
  0.00000000E+00  0.00000000E+00  0.00000000E+00
  0.00000000E+00  0.00000000E+00  0.00000000E+00
  0.00000000E+00  0.00000000E+00  0.00000000E+00
  0.00000000E+00  0.00000000E+00  0.00000000E+00
  0.00000000E+00  0.00000000E+00  0.00000000E+00
  0.00000000E+00  0.00000000E+00  0.00000000E+00
  0.00000000E+00  0.00000000E+00  0.00000000E+00
  0.00000000E+00  0.00000000E+00  0.00000000E+00
  0.00000000E+00  0.00000000E+00  0.00000000E+00
  0.00000000E+00  0.00000000E+00  0.00000000E+00
  0.00000000E+00  0.00000000E+00  0.00000000E+00
  0.00000000E+00  0.00000000E+00  0.00000000E+00
  0.00000000E+00  0.00000000E+00  0.00000000E+00
  0.00000000E+00  0.00000000E+00  0.00000000E+00
  0.00000000E+00  0.00000000E+00  0.00000000E+00
  0.00000000E+00  0.00000000E+00  0.00000000E+00
  0.00000000E+00  0.00000000E+00  0.00000000E+00
  0.00000000E+00  0.00000000E+00  0.00000000E+00
  0.00000000E+00  0.00000000E+00  0.00000000E+00
  0.00000000E+00  0.00000000E+00  0.00000000E+00
  0.00000000E+00  0.00000000E+00  0.00000000E+00
  0.00000000E+00  0.00000000E+00  0.00000000E+00
  0.00000000E+00  0.00000000E+00  0.00000000E+00
  0.00000000E+00  0.00000000E+00  0.00000000E+00
