 C  N Ti                                
   1.00000000000000     
     8.5243602164998205   -0.0107083001489832   -0.0000689765927996
    -0.0106888259736872    8.5246561873351165   -0.0000196831308699
    -0.0001569364290294   -0.0000488857664798   19.8407593496937906
   C    N    Ti
    22     2     1
Direct
  0.5000697508298129  0.0846470361437185  0.1542475353409801
  0.3528460965222813  0.1630504016103413  0.1542410649660817
  0.6484925746096976  0.1650029940589028  0.1542238530395993
  0.7973600069186935  0.9170949699128910  0.1541642814433542
  0.7968039891232865  0.0833509189191679  0.1541609030926805
  0.9166208879396640  0.2030258305356902  0.1541464722293191
  0.8352041250226827  0.3515467030666992  0.1541907791926253
  0.2022556736476188  0.0824824478161632  0.1541824658213573
  0.0827712378165324  0.2024356800986138  0.1541655488007253
  0.1651030943391326  0.3528250845741930  0.1542157143224391
  0.0855777869675905  0.4996101149774982  0.1542024467690845
  0.1641022307865308  0.6487670749991407  0.1542076394199600
  0.3512973737653727  0.8361659521609931  0.1542431240134900
  0.2028612074796924  0.9166150488884330  0.1541712837743857
  0.0833047087452980  0.7969673594449502  0.1541470648404874
  0.6470224422311411  0.8348410038059659  0.1542211935771926
  0.8368564961900443  0.6469973448404289  0.1541847783165196
  0.9174534057250514  0.7975700251227434  0.1541450710412159
  0.5003650775073585  0.9146069857721580  0.1542444395678228
  0.9155431268645057  0.4999604302845652  0.1541928639481758
  0.6712387855071781  0.6685518268759415  0.1542386099723040
  0.3312214904709255  0.3285180392417190  0.1542685991163210
  0.6725112523701879  0.3277387911593251  0.1542371421176995
  0.3267046369548017  0.6735644335851486  0.1542633971788624
  0.4967621026651756  0.5033764193470570  0.1545067379181102
 
  0.00000000E+00  0.00000000E+00  0.00000000E+00
  0.00000000E+00  0.00000000E+00  0.00000000E+00
  0.00000000E+00  0.00000000E+00  0.00000000E+00
  0.00000000E+00  0.00000000E+00  0.00000000E+00
  0.00000000E+00  0.00000000E+00  0.00000000E+00
  0.00000000E+00  0.00000000E+00  0.00000000E+00
  0.00000000E+00  0.00000000E+00  0.00000000E+00
  0.00000000E+00  0.00000000E+00  0.00000000E+00
  0.00000000E+00  0.00000000E+00  0.00000000E+00
  0.00000000E+00  0.00000000E+00  0.00000000E+00
  0.00000000E+00  0.00000000E+00  0.00000000E+00
  0.00000000E+00  0.00000000E+00  0.00000000E+00
  0.00000000E+00  0.00000000E+00  0.00000000E+00
  0.00000000E+00  0.00000000E+00  0.00000000E+00
  0.00000000E+00  0.00000000E+00  0.00000000E+00
  0.00000000E+00  0.00000000E+00  0.00000000E+00
  0.00000000E+00  0.00000000E+00  0.00000000E+00
  0.00000000E+00  0.00000000E+00  0.00000000E+00
  0.00000000E+00  0.00000000E+00  0.00000000E+00
  0.00000000E+00  0.00000000E+00  0.00000000E+00
  0.00000000E+00  0.00000000E+00  0.00000000E+00
  0.00000000E+00  0.00000000E+00  0.00000000E+00
  0.00000000E+00  0.00000000E+00  0.00000000E+00
  0.00000000E+00  0.00000000E+00  0.00000000E+00
  0.00000000E+00  0.00000000E+00  0.00000000E+00
