 C  N Co                                
   1.00000000000000     
    12.4630891798391943    0.0000000000000000    0.0000000000000000
    -0.0000000000000004   12.7254419632951006    0.0000000000000000
     0.0000000000000003    0.0000000000000000   20.0000000000000000
   C    N    Co
    54     4     1
Direct
  0.0522139319312812  0.0474887737984128  0.1583071854038200
  0.1526839554327109  0.1022838834628030  0.1583152862027011
  0.1520653797086333  0.2136779368497106  0.1582644681602219
  0.0522070352039911  0.2687459934397353  0.1582092700812474
  0.2535517025388486  0.0479342833656980  0.1583557062430563
  0.3537074877565263  0.1042397054060678  0.1584109400575710
  0.3527354162799410  0.2170908760290895  0.1583951569994356
  0.2513311632552186  0.2694223264079315  0.1583167231527113
  0.4536136070210432  0.0486788550468486  0.1584305130754248
  0.5522116705607341  0.1079242011605393  0.1584530526277143
  0.5522055740131568  0.2222530618262415  0.1584437213229228
  0.4506821957262345  0.2778877522137740  0.1584118802656960
  0.6508113762386624  0.0486753443887409  0.1584285620205619
  0.7507109537175065  0.1042335467970503  0.1584166274226005
  0.7516689219570097  0.2170887025242760  0.1584008741447567
  0.6537169148178917  0.2778908474306474  0.1584174363118926
  0.8508700811029567  0.0479367925659399  0.1583667743852425
  0.9517381427880753  0.1022840441586114  0.1583042044026074
  0.9523476814352152  0.2136829110329866  0.1582482124925722
  0.8530740982480457  0.2694139118589531  0.1583075912217634
  0.0521974865953040  0.3803381090789984  0.1581666179803902
  0.1505243828956614  0.4363642605383650  0.1581465591940631
  0.1505292737498364  0.5474094627421507  0.1581137306003214
  0.0521922162840027  0.6034414728112546  0.1581124869199535
  0.2496897493551176  0.3807306618812875  0.1582371188100453
  0.3473697633485047  0.4358398088350957  0.1582857224242455
  0.3473757804464252  0.5479044120885087  0.1582731547600222
  0.2497118523411355  0.6030125771621052  0.1581917267458426
  0.7570354247580229  0.4358379814758324  0.1583002619576944
  0.7570223028138572  0.5478989424860857  0.1582958077280264
  0.8547025170294714  0.3807270329607742  0.1582412125314066
  0.9538714831828760  0.4363608992760888  0.1581440913285327
  0.9538600658233868  0.5474059309624655  0.1581184144340420
  0.8546883843497491  0.6030124867287570  0.1582059137092552
  0.0522084864332963  0.7150155401621251  0.1581893750996796
  0.1520856118290891  0.7700826993666018  0.1582442780980207
  0.0522143288689616  0.9362552927075294  0.1582938094316682
  0.2513459965671946  0.7143173131551152  0.1582772879234601
  0.3527366278393678  0.7666507889822438  0.1583623609061113
  0.3537014909643506  0.8795106329273127  0.1583792788386499
  0.2535391976385268  0.9358132859358581  0.1583449331442316
  0.4506862756057006  0.7058618772758599  0.1583972038757224
  0.5522199723397344  0.7615110992621490  0.1584237661837602
  0.5522205702812458  0.8758178987811214  0.1584230584741993
  0.4536224612813953  0.9350307697216146  0.1584176220239768
  0.6537343662656406  0.7058524337663187  0.1584050239409926
  0.7516882014264679  0.7666474875745406  0.1583686011086499
  0.7507262825029899  0.8795085802076333  0.1583940163385794
  0.6508125531149489  0.9350307999782825  0.1584214056582332
  0.8530720633173853  0.7143171318617081  0.1582780390233241
  0.9523329371751211  0.7700896627189510  0.1582407046183161
  0.8508869272372634  0.9358103083101728  0.1583586274048237
  0.1526771456111857  0.8814609974432105  0.1582893516579116
  0.9517481634176458  0.8814685763212778  0.1582899824296843
  0.4461478594764655  0.3870175598150932  0.1583977603441878
  0.4461537800864797  0.5967434308816464  0.1584025017580266
  0.6582497563814511  0.3870198856275917  0.1584039908490962
  0.6582518653098559  0.5967376144021669  0.1584143367578373
  0.5521991963106774  0.4918905401389629  0.1584463229924835
 
  0.00000000E+00  0.00000000E+00  0.00000000E+00
  0.00000000E+00  0.00000000E+00  0.00000000E+00
  0.00000000E+00  0.00000000E+00  0.00000000E+00
  0.00000000E+00  0.00000000E+00  0.00000000E+00
  0.00000000E+00  0.00000000E+00  0.00000000E+00
  0.00000000E+00  0.00000000E+00  0.00000000E+00
  0.00000000E+00  0.00000000E+00  0.00000000E+00
  0.00000000E+00  0.00000000E+00  0.00000000E+00
  0.00000000E+00  0.00000000E+00  0.00000000E+00
  0.00000000E+00  0.00000000E+00  0.00000000E+00
  0.00000000E+00  0.00000000E+00  0.00000000E+00
  0.00000000E+00  0.00000000E+00  0.00000000E+00
  0.00000000E+00  0.00000000E+00  0.00000000E+00
  0.00000000E+00  0.00000000E+00  0.00000000E+00
  0.00000000E+00  0.00000000E+00  0.00000000E+00
  0.00000000E+00  0.00000000E+00  0.00000000E+00
  0.00000000E+00  0.00000000E+00  0.00000000E+00
  0.00000000E+00  0.00000000E+00  0.00000000E+00
  0.00000000E+00  0.00000000E+00  0.00000000E+00
  0.00000000E+00  0.00000000E+00  0.00000000E+00
  0.00000000E+00  0.00000000E+00  0.00000000E+00
  0.00000000E+00  0.00000000E+00  0.00000000E+00
  0.00000000E+00  0.00000000E+00  0.00000000E+00
  0.00000000E+00  0.00000000E+00  0.00000000E+00
  0.00000000E+00  0.00000000E+00  0.00000000E+00
  0.00000000E+00  0.00000000E+00  0.00000000E+00
  0.00000000E+00  0.00000000E+00  0.00000000E+00
  0.00000000E+00  0.00000000E+00  0.00000000E+00
  0.00000000E+00  0.00000000E+00  0.00000000E+00
  0.00000000E+00  0.00000000E+00  0.00000000E+00
  0.00000000E+00  0.00000000E+00  0.00000000E+00
  0.00000000E+00  0.00000000E+00  0.00000000E+00
  0.00000000E+00  0.00000000E+00  0.00000000E+00
  0.00000000E+00  0.00000000E+00  0.00000000E+00
  0.00000000E+00  0.00000000E+00  0.00000000E+00
  0.00000000E+00  0.00000000E+00  0.00000000E+00
  0.00000000E+00  0.00000000E+00  0.00000000E+00
  0.00000000E+00  0.00000000E+00  0.00000000E+00
  0.00000000E+00  0.00000000E+00  0.00000000E+00
  0.00000000E+00  0.00000000E+00  0.00000000E+00
  0.00000000E+00  0.00000000E+00  0.00000000E+00
  0.00000000E+00  0.00000000E+00  0.00000000E+00
  0.00000000E+00  0.00000000E+00  0.00000000E+00
  0.00000000E+00  0.00000000E+00  0.00000000E+00
  0.00000000E+00  0.00000000E+00  0.00000000E+00
  0.00000000E+00  0.00000000E+00  0.00000000E+00
  0.00000000E+00  0.00000000E+00  0.00000000E+00
  0.00000000E+00  0.00000000E+00  0.00000000E+00
  0.00000000E+00  0.00000000E+00  0.00000000E+00
  0.00000000E+00  0.00000000E+00  0.00000000E+00
  0.00000000E+00  0.00000000E+00  0.00000000E+00
  0.00000000E+00  0.00000000E+00  0.00000000E+00
  0.00000000E+00  0.00000000E+00  0.00000000E+00
  0.00000000E+00  0.00000000E+00  0.00000000E+00
  0.00000000E+00  0.00000000E+00  0.00000000E+00
  0.00000000E+00  0.00000000E+00  0.00000000E+00
  0.00000000E+00  0.00000000E+00  0.00000000E+00
  0.00000000E+00  0.00000000E+00  0.00000000E+00
  0.00000000E+00  0.00000000E+00  0.00000000E+00
