 C  N Mn                                
   1.00000000000000     
    12.5123681484685161    0.0000000000000000    0.0000000000000000
    -0.0000000000000004   12.8166994477319633    0.0000000000000000
     0.0000000000000003    0.0000000000000000   19.8713392819153718
   C    N    Mn
    56     2     1
Direct
  0.0520465508659048  0.0474123002344084  0.1594165715291427
  0.1521558219963499  0.1021352669946795  0.1593771488346628
  0.1515383838496722  0.2131925769946317  0.1592932259980948
  0.0521826193363160  0.2685681815155218  0.1592394556616818
  0.2526462909335904  0.0475419209102751  0.1594067481814003
  0.3527198071440676  0.1029686662190665  0.1594185432403642
  0.3518025968252737  0.2148126178301579  0.1593618755790334
  0.2508824269907421  0.2686054326641760  0.1592782727957925
  0.4533404908459435  0.0482004303259800  0.1594550000011947
  0.5530705582620755  0.1061857263080019  0.1594543524626494
  0.5532102925838007  0.2188994320112662  0.1594165172435421
  0.4506747169006002  0.2734655032017793  0.1593698003381891
  0.6520782432037628  0.0480877656132367  0.1594542002555724
  0.7520267236359240  0.1030908638449209  0.1594103873170546
  0.7532571803375590  0.2151181870030692  0.1593801397045606
  0.6552979669627894  0.2739991159149420  0.1594080818845105
  0.8519404278505806  0.0475714736240925  0.1593986059071555
  0.9521598887478215  0.1022513947786256  0.1593727646696203
  0.9526713670775934  0.2134617619343052  0.1592879132311359
  0.8537172402491942  0.2689752844325276  0.1593045052447614
  0.0516564930608394  0.3802660032338787  0.1591952516490845
  0.1492401549854888  0.4360025206408871  0.1591943517882821
  0.1492316432206315  0.5477306742050901  0.1592129492787175
  0.0516465175786983  0.6034743047121347  0.1592194489826050
  0.2474004657438557  0.3796344132368583  0.1592220529653358
  0.3442538836039714  0.4352625522384832  0.1592490451946311
  0.3442364482384406  0.5484873463940736  0.1592576921057303
  0.2473732892025221  0.6041216204127896  0.1592447563858678
  0.7577084280205810  0.4349718847815703  0.1593261360803009
  0.7576896572837556  0.5487454241310289  0.1593215737665420
  0.8554904525601469  0.3805981049161924  0.1592575245596582
  0.9537808396917001  0.4363766501530873  0.1591768862541817
  0.9537629715645004  0.5473707535388669  0.1591717138784522
  0.8554642840757638  0.6031227692855917  0.1592416900076946
  0.0521770336516677  0.7151643290535815  0.1592644013664995
  0.1515241795541481  0.7705601808508550  0.1593185781330089
  0.0520463214071024  0.9363713981463293  0.1594270729166355
  0.2508646064521075  0.7151365882573665  0.1593095205980407
  0.3517905052280308  0.7689351158139431  0.1593840917649338
  0.3527102824161908  0.8807683092217720  0.1594300625460649
  0.2526320237623713  0.9361825994693526  0.1594161566443435
  0.4506597197117999  0.7103251277052722  0.1593934869316865
  0.5532210821392969  0.7648900215748078  0.1594549637349808
  0.5530920481301916  0.8775961983664514  0.1594507874044452
  0.4533450650412415  0.9355535460622392  0.1594448581881470
  0.6552957322874222  0.7097634227974845  0.1594400447373394
  0.7532610789361820  0.7686086731909823  0.1593950013753326
  0.7520441637776730  0.8806294628698536  0.1594136682139714
  0.6521070156102285  0.9356724100168546  0.1594485350767672
  0.8537123409981654  0.7147477376099592  0.1593108863304935
  0.9526599001216948  0.7702828245110032  0.1593063872877057
  0.8519557881145197  0.9361423442624449  0.1594000050994603
  0.1521344059228751  0.8816146995343007  0.1593862594291647
  0.9521861761060008  0.8814938140666716  0.1593772308428793
  0.4435442281438232  0.3835632455919188  0.1593146380799894
  0.4435121304847539  0.6002132977987410  0.1593267548428746
  0.6616449095329183  0.3818806168945575  0.1594036238243902
  0.6616431581804750  0.6018761660290747  0.1594283486097353
  0.5520610708481390  0.4918989421849017  0.1593395125158253
 
  0.00000000E+00  0.00000000E+00  0.00000000E+00
  0.00000000E+00  0.00000000E+00  0.00000000E+00
  0.00000000E+00  0.00000000E+00  0.00000000E+00
  0.00000000E+00  0.00000000E+00  0.00000000E+00
  0.00000000E+00  0.00000000E+00  0.00000000E+00
  0.00000000E+00  0.00000000E+00  0.00000000E+00
  0.00000000E+00  0.00000000E+00  0.00000000E+00
  0.00000000E+00  0.00000000E+00  0.00000000E+00
  0.00000000E+00  0.00000000E+00  0.00000000E+00
  0.00000000E+00  0.00000000E+00  0.00000000E+00
  0.00000000E+00  0.00000000E+00  0.00000000E+00
  0.00000000E+00  0.00000000E+00  0.00000000E+00
  0.00000000E+00  0.00000000E+00  0.00000000E+00
  0.00000000E+00  0.00000000E+00  0.00000000E+00
  0.00000000E+00  0.00000000E+00  0.00000000E+00
  0.00000000E+00  0.00000000E+00  0.00000000E+00
  0.00000000E+00  0.00000000E+00  0.00000000E+00
  0.00000000E+00  0.00000000E+00  0.00000000E+00
  0.00000000E+00  0.00000000E+00  0.00000000E+00
  0.00000000E+00  0.00000000E+00  0.00000000E+00
  0.00000000E+00  0.00000000E+00  0.00000000E+00
  0.00000000E+00  0.00000000E+00  0.00000000E+00
  0.00000000E+00  0.00000000E+00  0.00000000E+00
  0.00000000E+00  0.00000000E+00  0.00000000E+00
  0.00000000E+00  0.00000000E+00  0.00000000E+00
  0.00000000E+00  0.00000000E+00  0.00000000E+00
  0.00000000E+00  0.00000000E+00  0.00000000E+00
  0.00000000E+00  0.00000000E+00  0.00000000E+00
  0.00000000E+00  0.00000000E+00  0.00000000E+00
  0.00000000E+00  0.00000000E+00  0.00000000E+00
  0.00000000E+00  0.00000000E+00  0.00000000E+00
  0.00000000E+00  0.00000000E+00  0.00000000E+00
  0.00000000E+00  0.00000000E+00  0.00000000E+00
  0.00000000E+00  0.00000000E+00  0.00000000E+00
  0.00000000E+00  0.00000000E+00  0.00000000E+00
  0.00000000E+00  0.00000000E+00  0.00000000E+00
  0.00000000E+00  0.00000000E+00  0.00000000E+00
  0.00000000E+00  0.00000000E+00  0.00000000E+00
  0.00000000E+00  0.00000000E+00  0.00000000E+00
  0.00000000E+00  0.00000000E+00  0.00000000E+00
  0.00000000E+00  0.00000000E+00  0.00000000E+00
  0.00000000E+00  0.00000000E+00  0.00000000E+00
  0.00000000E+00  0.00000000E+00  0.00000000E+00
  0.00000000E+00  0.00000000E+00  0.00000000E+00
  0.00000000E+00  0.00000000E+00  0.00000000E+00
  0.00000000E+00  0.00000000E+00  0.00000000E+00
  0.00000000E+00  0.00000000E+00  0.00000000E+00
  0.00000000E+00  0.00000000E+00  0.00000000E+00
  0.00000000E+00  0.00000000E+00  0.00000000E+00
  0.00000000E+00  0.00000000E+00  0.00000000E+00
  0.00000000E+00  0.00000000E+00  0.00000000E+00
  0.00000000E+00  0.00000000E+00  0.00000000E+00
  0.00000000E+00  0.00000000E+00  0.00000000E+00
  0.00000000E+00  0.00000000E+00  0.00000000E+00
  0.00000000E+00  0.00000000E+00  0.00000000E+00
  0.00000000E+00  0.00000000E+00  0.00000000E+00
  0.00000000E+00  0.00000000E+00  0.00000000E+00
  0.00000000E+00  0.00000000E+00  0.00000000E+00
  0.00000000E+00  0.00000000E+00  0.00000000E+00
