 C  N Cu                                
   1.00000000000000     
     8.4558707836969500    0.0000000000000001    0.0000000000000000
    -0.0000000000000001    8.4559180175317081    0.0000000000000000
    -0.0000000000000002    0.0000000000000000   19.8713392818999957
   C    N    Cu
    23     1     1
Direct
  0.5014121244255303  0.0812111639968897  0.1543079697329190
  0.3566990592227687  0.1663165826908237  0.1542819421215426
  0.6454520791710252  0.1642077647797935  0.1542566108874571
  0.7967339583081938  0.9176674460447518  0.1540077455984199
  0.7954333750073000  0.0822996965656955  0.1540240486003292
  0.9178148711121975  0.2055467384841347  0.1540115529021648
  0.8304844815057498  0.3562155616099575  0.1542181998671054
  0.2054838890979682  0.0817084574998140  0.1540512776903221
  0.0817464739078194  0.2054453801708113  0.1540256771836039
  0.1663495929092685  0.3566526393833961  0.1542504801112262
  0.0812498094009980  0.5013730685730308  0.1542721848170262
  0.1642427483306975  0.6454110902210312  0.1542698048588017
  0.3562621376394527  0.8304326611279497  0.1542842068933623
  0.2055866306778035  0.9177728905242053  0.1540624664862339
  0.0823419747769536  0.7953823266785361  0.1540516252283829
  0.6480852727471074  0.8321765457082769  0.1542197503119559
  0.8322218309638671  0.6480487692333828  0.1542006982037209
  0.9177042801506249  0.7966809927832732  0.1540086571101889
  0.5014150826536721  0.9124769611174984  0.1542879067877982
  0.9125145895149679  0.5013723368791650  0.1542368933400814
  0.6649380131438817  0.3322600350914268  0.1543841774742547
  0.3337738534710858  0.3337309624572035  0.1544157815811707
  0.3322994524448498  0.6648992076381010  0.1544225812229550
  0.6703643567483717  0.6703235939947574  0.1543360802214183
  0.4997396225989544  0.4997000443342650  0.1545246905883521
 
  0.00000000E+00  0.00000000E+00  0.00000000E+00
  0.00000000E+00  0.00000000E+00  0.00000000E+00
  0.00000000E+00  0.00000000E+00  0.00000000E+00
  0.00000000E+00  0.00000000E+00  0.00000000E+00
  0.00000000E+00  0.00000000E+00  0.00000000E+00
  0.00000000E+00  0.00000000E+00  0.00000000E+00
  0.00000000E+00  0.00000000E+00  0.00000000E+00
  0.00000000E+00  0.00000000E+00  0.00000000E+00
  0.00000000E+00  0.00000000E+00  0.00000000E+00
  0.00000000E+00  0.00000000E+00  0.00000000E+00
  0.00000000E+00  0.00000000E+00  0.00000000E+00
  0.00000000E+00  0.00000000E+00  0.00000000E+00
  0.00000000E+00  0.00000000E+00  0.00000000E+00
  0.00000000E+00  0.00000000E+00  0.00000000E+00
  0.00000000E+00  0.00000000E+00  0.00000000E+00
  0.00000000E+00  0.00000000E+00  0.00000000E+00
  0.00000000E+00  0.00000000E+00  0.00000000E+00
  0.00000000E+00  0.00000000E+00  0.00000000E+00
  0.00000000E+00  0.00000000E+00  0.00000000E+00
  0.00000000E+00  0.00000000E+00  0.00000000E+00
  0.00000000E+00  0.00000000E+00  0.00000000E+00
  0.00000000E+00  0.00000000E+00  0.00000000E+00
  0.00000000E+00  0.00000000E+00  0.00000000E+00
  0.00000000E+00  0.00000000E+00  0.00000000E+00
  0.00000000E+00  0.00000000E+00  0.00000000E+00
