 C  N  H Fe                             
   1.00000000000000     
    11.1238791830536403  -19.2735646593611101    0.0075317674275688
    11.1286936925117406   19.2763431481407217   -0.0066888205386271
    -0.0022752966608447   -0.0060060289167054   25.2432569806114628
   C    N    H    Fe
   210     8    48     1
Direct
  0.9999934080508630  0.9999294742005173  0.0589808948851238
  0.0370589889508964  0.0740390520681243  0.0598916659007733
  0.9999464493432472  0.1110312595854823  0.0613062777188175
  0.0369622592033253  0.1851238134914258  0.0628708166831099
  0.9998795156812685  0.2221825957067842  0.0624342476597413
  0.0369208481401823  0.2962999587168716  0.0621422643993413
  0.9998573494987455  0.3332966998671036  0.0593371522196255
  0.0369924293007840  0.4073741599088618  0.0577040139614230
  0.9999128409767633  0.4443427361453634  0.0548414459826611
  0.0370712013654704  0.5184485719602051  0.0540781160305186
  0.9999619981474720  0.5554508255636110  0.0546304953196112
  0.0370735152893370  0.6295373436005289  0.0563222122685915
  0.9999894163341185  0.6664993328724402  0.0590288030823278
  0.0370452877771453  0.7405903035116188  0.0605961680310459
  0.9999844368134020  0.7776416311541989  0.0617418997005132
  0.0370326077660952  0.8517612921006689  0.0609975304683612
  0.9999884825518142  0.8888131897909299  0.0601994226665522
  0.0370718061786227  0.9629001808372365  0.0584817081603141
  0.1111407695083738  0.9999550521986931  0.0576548078460201
  0.1482523813602843  0.0741521897206035  0.0583792860112812
  0.1111473129616972  0.1111302712115782  0.0599138409693496
  0.1481529303214185  0.1851730276369256  0.0625165178360017
  0.1110507079965025  0.2221728258635113  0.0637136340160281
  0.1480922991392018  0.2962900436703296  0.0644995775764852
  0.1110143990193391  0.3333461863840746  0.0632856876626012
  0.1481082346981724  0.4074184713077615  0.0617765527741038
  0.1110836562851056  0.4444123632539162  0.0588485942120377
  0.1482125147965681  0.5184587714356446  0.0565825453899265
  0.1111774269910108  0.5554628185462752  0.0538775717708304
  0.1482710917177258  0.6296330386513492  0.0534800993836717
  0.1111625760077733  0.6666032632174150  0.0554662450067933
  0.1481927996399474  0.7406438447735229  0.0580517540878269
  0.1111184484693948  0.7776454396079940  0.0601849484825076
  0.1481549813410326  0.8517598211646922  0.0611736699355164
  0.1111079916294009  0.8888305814944961  0.0606783607057579
  0.1481668369251483  0.9629344547976078  0.0595824307779532
  0.2222123740801881  0.9999973861172536  0.0613404081473097
  0.2592683786691888  0.0740989047632628  0.0618988264285041
  0.2222554020827443  0.1111668348310916  0.0608285044618546
  0.2592742573745139  0.1852017880445593  0.0630007167328883
  0.2222017897892579  0.2222204174652124  0.0636046880247854
  0.2591844382049209  0.2962530790438122  0.0651299939257745
  0.2221445110517901  0.3333045987383205  0.0650300592959310
  0.2591681990329109  0.4073707520558931  0.0645752979388299
  0.2221726657876849  0.4444108116131787  0.0625854343583372
  0.2592582332536534  0.5184688877912603  0.0612557011413037
  0.2222633583624600  0.5554701017570900  0.0582098321370147
  0.2593405767239491  0.6295586126236393  0.0573621932545713
  0.2223483378657275  0.6666444119155270  0.0551490881892014
  0.2593571654865669  0.7407106109712055  0.0573289133967270
  0.2222742634814467  0.7777067464963936  0.0586738233113253
  0.2592782009182957  0.8517575234288027  0.0612686893045642
  0.2222134023783985  0.8888110387108507  0.0618310793010241
  0.2592450992842940  0.9629278580019786  0.0626444802785439
  0.3333163371720409  0.9999715518483731  0.0637345469387232
  0.3703737341628744  0.0740851255991291  0.0638983882480701
  0.3333102764454983  0.1111310908954767  0.0634891045962825
  0.3703727092950795  0.1852036493636280  0.0639453359678413
  0.3332915758952531  0.2221979569162548  0.0642879595353284
  0.3703550241977182  0.2962582024560747  0.0653547281940028
  0.3332526595835746  0.3332563385066227  0.0658636190886585
  0.3702609794639914  0.4073152991703577  0.0664290192125878
  0.3332347896824847  0.4443727041163680  0.0655236846965280
  0.3703190903438878  0.5184564497653538  0.0650704061426068
  0.3332683476440799  0.5554596483012221  0.0629646812120249
  0.3703658913069696  0.6295136649824825  0.0625958262832816
  0.3333486534358405  0.6665440907782773  0.0601970425844636
  0.3704004861650945  0.7406335012556002  0.0609770860991574
  0.3333662576818761  0.7777052417039245  0.0599168186239013
  0.3703779105727229  0.8517562558893551  0.0622196274593630
  0.3333324864811266  0.8888098891086627  0.0625807906215331
  0.3703745234634158  0.9629159055126991  0.0638224108595178
  0.4444552363006493  0.9999769219367185  0.0638693620984002
  0.4815172069564618  0.0740866584855865  0.0629342073803719
  0.4444562737406629  0.1111267515086720  0.0632840972205520
  0.4815098907684851  0.1852125400928446  0.0621868622627469
  0.4444468997065194  0.2222284569342100  0.0633527835507407
  0.4815363814539113  0.2962884510979924  0.0631312490862282
  0.4444416229808058  0.3332571919014437  0.0648608789445908
  0.4815256883874429  0.4072780805821846  0.0654491215880284
  0.4443968294975277  0.4443032639909310  0.0667507050930136
  0.4814975808436784  0.5184576380846243  0.0667799152844986
  0.4443790258446475  0.5554719746856277  0.0660909440595375
  0.4814663424127413  0.6295108567527506  0.0655540702499279
  0.4443801783162524  0.6664998113597779  0.0643416048042946
  0.4814683953586078  0.7405831062580480  0.0642404951854161
  0.4444318158931581  0.7776313498489166  0.0632715416821447
  0.4814887939424600  0.8517381087843229  0.0638368209545072
  0.4444400205805815  0.8887952655829170  0.0636138671128056
  0.4815031392210825  0.9629147450133522  0.0638323976389842
  0.5555684041951360  0.9999647647066982  0.0630081897011948
  0.5925835165639125  0.0740430301047789  0.0608784017323140
  0.5555488667055267  0.1111037121201894  0.0606146787215827
  0.5925313503701060  0.1851258962327866  0.0575328994509248
  0.5555091837123955  0.2221981873094978  0.0590411820051947
  0.5925381928551622  0.2962621045547473  0.0576423090062936
  0.5555174666766394  0.3332649538212991  0.0606358575680525
  0.5925959128875929  0.4073132062199563  0.0609859491362220
  0.5555695085075411  0.4442996271042863  0.0638878927783455
  0.5926255883102193  0.5183711759829621  0.0646500210584241
  0.5556138119778871  0.5554310394711351  0.0661152311157636
  0.5926186181453383  0.6294928785290713  0.0657187842065162
  0.5555387385119114  0.6665080669702866  0.0655833334556909
  0.5925994575267101  0.7405781084585447  0.0644349529924171
  0.5555487968910632  0.7776062668748518  0.0643191320100634
  0.5926016655505425  0.8516910231127263  0.0635667149940101
  0.5555626836784300  0.8887745322889755  0.0638958383401249
  0.5926036334336341  0.9628872597609281  0.0630976464221421
  0.6666532255398745  0.9999185675902230  0.0617111980720917
  0.7036579683020976  0.0740184014904269  0.0600157754929914
  0.6666038839032470  0.1110721054983788  0.0587737652382860
  0.7035557374792377  0.1850500326302969  0.0550027183893057
  0.6664643111268684  0.2220548672349931  0.0535800101102002
  0.7034472271161734  0.2961262452180582  0.0505937156800387
  0.6664683991453956  0.3332236376950760  0.0535928309286755
  0.7035484257891795  0.4073298040648574  0.0544602321913214
  0.6665848018404655  0.4443028654696638  0.0586518367743167
  0.7036425897551273  0.5183384728115101  0.0606517050804923
  0.6666680822387826  0.5553663417585276  0.0634625763788214
  0.7036846398490602  0.6294324532194822  0.0642843313043836
  0.6666670191016100  0.6665013801889408  0.0647399819417097
  0.7036587848879391  0.7405432062812902  0.0632200866647443
  0.6666037758605143  0.7775744239759289  0.0628161442664689
  0.7036228222706230  0.8516160853227618  0.0606111953066798
  0.6666347759533932  0.8887111952252914  0.0617722618908918
  0.7036762138896780  0.9628211859395571  0.0609749178615742
  0.7777223990765908  0.9998678392222494  0.0594564424777795
  0.8147540446861165  0.0739900899322901  0.0599644761188871
  0.7777010911410671  0.1110625870063211  0.0593711663151528
  0.8147070901655278  0.1851505160467989  0.0574827960646315
  0.7776386246928394  0.2221135867016780  0.0541013438427938
  0.8146590861920742  0.2961321567737282  0.0508727333566429
  0.7775279468751322  0.3331275879182682  0.0482003071598134
  0.8146518046621342  0.4073888433799154  0.0490625259326215
  0.7776010793704436  0.4443687495380791  0.0525054058442934
  0.8146880061570480  0.5183540035497727  0.0562302703076338
  0.7776866454806317  0.5553272888541663  0.0598920134767201
  0.8147659596855916  0.6293812053891025  0.0622875267631941
  0.7777233066421115  0.6664538915397692  0.0637292094335934
  0.8147773946769301  0.7405803140086916  0.0631257756134576
  0.7776955181848348  0.7775906317150392  0.0619485207818295
  0.8147230187087375  0.8516406431411843  0.0594774881617354
  0.7776388951612844  0.8886420755289627  0.0582020877448826
  0.8147517903954021  0.9628327376469114  0.0579273176835692
  0.8888020870215350  0.9998788701471444  0.0588109831871486
  0.9258666148901048  0.0739739051966483  0.0603968010644235
  0.8888137782894417  0.1110381451832038  0.0605898333319818
  0.9258285846015964  0.1851562385808182  0.0609575540419187
  0.8887630591542404  0.2221847632360061  0.0586810822149475
  0.9257847227221278  0.2962642679400649  0.0572138339509287
  0.8887198807981221  0.3331940708389923  0.0532293647467747
  0.9258216466054724  0.4073085175870352  0.0527207595534194
  0.8887393127272509  0.4443489140817493  0.0511964682574939
  0.9258441168510826  0.5184022050841485  0.0539990881194065
  0.8887731610131604  0.5553944773291161  0.0564700199814754
  0.9258881021037874  0.6294304903572613  0.0594742406875218
  0.8888475805742814  0.6664505549645973  0.0618413490426956
  0.9259163338932254  0.7405796226104773  0.0625035872526687
  0.8888591308180730  0.7776477966635996  0.0625171339146743
  0.9259035719682057  0.8517451683588267  0.0609734982190882
  0.8888042858211538  0.8887366083445021  0.0595770624856901
  0.9258815969542235  0.9628491651423322  0.0590130165036617
  0.2675783103540240  0.1334941194868785  0.2118257067466418
  0.3367881301850341  0.1860920856327577  0.2058989087897474
  0.3506676693195698  0.2547580329638243  0.2011810328043930
  0.2952730375802510  0.2686522828678906  0.2010782593993437
  0.2260299934035239  0.2156840698755982  0.2064148307365384
  0.2111965333881383  0.1468180078044658  0.2128232529202433
  0.3259330009969070  0.3437119282924140  0.1969307886161496
  0.4145283037464185  0.3217012644268857  0.1974102403579910
  0.3158072591510088  0.4430249705025462  0.1949979895393584
  0.3929109876991273  0.5573681887497279  0.1970742241379322
  0.2755503743900934  0.4788864251173057  0.1958993643386517
  0.3246057798907778  0.5503622307791177  0.1979023773160701
  0.3062089605121341  0.6015885227347487  0.2016502196846691
  0.2356822963370157  0.5818181122069609  0.2036857139359917
  0.1860071825380168  0.5097493090563657  0.1996108537336428
  0.2046484203404094  0.4581113591709445  0.1958160435263626
  0.5352322027390103  0.3901494318532702  0.1953434407423880
  0.6100154857458169  0.5052755294015870  0.1949576480386046
  0.6302883771595150  0.3526639335114176  0.1978208558397906
  0.7025330164936024  0.3790031843870232  0.2002871392518323
  0.7478368222034362  0.4521183835038661  0.1978974957553958
  0.7234781014697692  0.4989332877509241  0.1950993791269708
  0.6515682717565445  0.4716933593276595  0.1947737967324071
  0.6052710022336457  0.3993881509084493  0.1954527278935291
  0.6010095520327964  0.6047726900085864  0.1984634629808616
  0.5127266537469164  0.6261314784337217  0.1990451869427610
  0.6316015131148216  0.6798735126011053  0.2028298481177929
  0.7005221387921610  0.7334330869493989  0.2078652732562981
  0.7142842498534129  0.8021111528235655  0.2133629585434467
  0.6574139774085410  0.8146359154367030  0.2123272845624810
  0.5885026969683221  0.7613585813147220  0.2069582642103623
  0.5759587554734962  0.6932081082067422  0.2027543832741082
  0.2150292973542774  0.6374052287952087  0.2136128863866538
  0.1451014151694974  0.6184197899776643  0.1873512196353161
  0.2079350007535532  0.6432976073557727  0.2742569615146557
  0.2717714356042573  0.7092095825681790  0.1928143659113434
  0.7884690671053057  0.8626277639568465  0.2230075184398756
  0.8023820682468407  0.9274571300921500  0.1908629892301555
  0.7963771436989278  0.8817004002951215  0.2826773102494275
  0.8437869902719586  0.8430871066372788  0.2074258634662263
  0.7334108595229671  0.3314561201501300  0.2096494373032519
  0.8016980167033141  0.3564263853003589  0.1785074443967317
  0.7508462081481961  0.3344726848944931  0.2693968408356079
  0.6818816791833590  0.2555763798479803  0.1938417806773532
  0.1367545814193164  0.0873000644171911  0.2238827368965407
  0.1188593890921051  0.0227086105878076  0.1899031247362711
  0.1313465543870403  0.0664481876679431  0.2830536309739613
  0.0819904807253300  0.1089303923066539  0.2120459758982686
  0.3980512922604800  0.3746692294132282  0.1954372779575205
  0.2876701695533753  0.3744755757543785  0.1958085313344782
  0.3867606465793855  0.4920577497614322  0.1953440852406744
  0.4775578550781543  0.3284671921468083  0.1967391832722349
  0.5398687281923057  0.4552925258182426  0.1949242480094054
  0.6388263725246520  0.5739295578272883  0.1967764379611907
  0.5289604110533920  0.5732654801631795  0.1968730498243998
  0.4499974470930676  0.6193150667675201  0.1987584636407862
  0.2567660737280917  0.0802233818898788  0.2163224778216328
  0.3789037960622047  0.1743180625435420  0.2054203568125511
  0.1854549707660359  0.2294598888043963  0.2062023036715463
  0.3474680605088562  0.6555647024416456  0.2034098619555958
  0.1308779291265772  0.4933999540243666  0.1993307919565161
  0.1649053023941007  0.4034308981879297  0.1927170576508703
  0.5934758652866018  0.2970999649588530  0.1982864949489445
  0.8037822673444417  0.4728465586393913  0.1986153138168835
  0.7587630160878066  0.5549088220599335  0.1935022252645695
  0.7417163093371357  0.7205258065230336  0.2078513053048390
  0.6675630960941192  0.8677398292338393  0.2160586559225314
  0.5456936060740062  0.7720983068295453  0.2062314501693820
  0.1453869532496259  0.6065620413938454  0.1453699710864187
  0.1357001655334369  0.6623849165204816  0.1905380793098337
  0.1013197946786895  0.5733003241200550  0.2063926991207048
  0.1657606070648796  0.5942723389120168  0.2903554362928125
  0.1960672749517779  0.6849310121451960  0.2825083682313589
  0.2565306345498429  0.6556588650278840  0.2946238207852445
  0.3186178514673078  0.7312684836794093  0.2177255787567879
  0.2523244034630762  0.7459646862531861  0.1932998228772981
  0.2870245797811588  0.7056721711666151  0.1521340388888444
  0.7920107761689054  0.9145752051545889  0.1488784910896331
  0.8570764574686077  0.9682847872762576  0.1951668223603764
  0.7700562468298294  0.9491396903914309  0.2040975779393286
  0.7582534790003230  0.8969496059961428  0.2945782270757008
  0.8488620148455612  0.9257920154442278  0.2901693200222518
  0.7884971629989665  0.8375752970610149  0.3073687979517256
  0.8422158066197911  0.8029218462999992  0.2337677608440027
  0.8958768725671807  0.8891362271516198  0.2105917047834030
  0.8364854737342157  0.8239721922737484  0.1664083773669349
  0.7939098346222755  0.3617732343851718  0.1365424110379781
  0.8193807939916922  0.3184744722481861  0.1825802272656934
  0.8437061072117609  0.4066698065845220  0.1927976994659127
  0.7887587456909860  0.3880876964101067  0.2809220424526956
  0.7738350065546985  0.3014653342802498  0.2771542933637114
  0.7040868661416239  0.3164446774982253  0.2939879493670147
  0.6369806127359195  0.2316367375524236  0.2207634572173071
  0.7078521381608150  0.2245624848398420  0.1956406743070293
  0.6626620853614609  0.2525132235777112  0.1533027543593014
  0.1231144816502383  0.0357463443652370  0.1478840561403109
  0.0650843402727194  0.9815977592970855  0.1978281437055160
  0.1530391114377525  0.0013792634073637  0.1981361106930636
  0.1672459316711761  0.0472706215259829  0.2919844518401642
  0.0780635902419630  0.0245712704823085  0.2916934415067244
  0.1438122599592220  0.1107670045496899  0.3092115518417137
  0.0866627671168475  0.1496294597649272  0.2393623555408212
  0.0296108905957198  0.0637137712460739  0.2168598898436671
  0.0867352573714665  0.1280085738177121  0.1711736254584571
  0.4633328997644177  0.4736529030656986  0.1940422803499278
 
  0.00000000E+00  0.00000000E+00  0.00000000E+00
  0.00000000E+00  0.00000000E+00  0.00000000E+00
  0.00000000E+00  0.00000000E+00  0.00000000E+00
  0.00000000E+00  0.00000000E+00  0.00000000E+00
  0.00000000E+00  0.00000000E+00  0.00000000E+00
  0.00000000E+00  0.00000000E+00  0.00000000E+00
  0.00000000E+00  0.00000000E+00  0.00000000E+00
  0.00000000E+00  0.00000000E+00  0.00000000E+00
  0.00000000E+00  0.00000000E+00  0.00000000E+00
  0.00000000E+00  0.00000000E+00  0.00000000E+00
  0.00000000E+00  0.00000000E+00  0.00000000E+00
  0.00000000E+00  0.00000000E+00  0.00000000E+00
  0.00000000E+00  0.00000000E+00  0.00000000E+00
  0.00000000E+00  0.00000000E+00  0.00000000E+00
  0.00000000E+00  0.00000000E+00  0.00000000E+00
  0.00000000E+00  0.00000000E+00  0.00000000E+00
  0.00000000E+00  0.00000000E+00  0.00000000E+00
  0.00000000E+00  0.00000000E+00  0.00000000E+00
  0.00000000E+00  0.00000000E+00  0.00000000E+00
  0.00000000E+00  0.00000000E+00  0.00000000E+00
  0.00000000E+00  0.00000000E+00  0.00000000E+00
  0.00000000E+00  0.00000000E+00  0.00000000E+00
  0.00000000E+00  0.00000000E+00  0.00000000E+00
  0.00000000E+00  0.00000000E+00  0.00000000E+00
  0.00000000E+00  0.00000000E+00  0.00000000E+00
  0.00000000E+00  0.00000000E+00  0.00000000E+00
  0.00000000E+00  0.00000000E+00  0.00000000E+00
  0.00000000E+00  0.00000000E+00  0.00000000E+00
  0.00000000E+00  0.00000000E+00  0.00000000E+00
  0.00000000E+00  0.00000000E+00  0.00000000E+00
  0.00000000E+00  0.00000000E+00  0.00000000E+00
  0.00000000E+00  0.00000000E+00  0.00000000E+00
  0.00000000E+00  0.00000000E+00  0.00000000E+00
  0.00000000E+00  0.00000000E+00  0.00000000E+00
  0.00000000E+00  0.00000000E+00  0.00000000E+00
  0.00000000E+00  0.00000000E+00  0.00000000E+00
  0.00000000E+00  0.00000000E+00  0.00000000E+00
  0.00000000E+00  0.00000000E+00  0.00000000E+00
  0.00000000E+00  0.00000000E+00  0.00000000E+00
  0.00000000E+00  0.00000000E+00  0.00000000E+00
  0.00000000E+00  0.00000000E+00  0.00000000E+00
  0.00000000E+00  0.00000000E+00  0.00000000E+00
  0.00000000E+00  0.00000000E+00  0.00000000E+00
  0.00000000E+00  0.00000000E+00  0.00000000E+00
  0.00000000E+00  0.00000000E+00  0.00000000E+00
  0.00000000E+00  0.00000000E+00  0.00000000E+00
  0.00000000E+00  0.00000000E+00  0.00000000E+00
  0.00000000E+00  0.00000000E+00  0.00000000E+00
  0.00000000E+00  0.00000000E+00  0.00000000E+00
  0.00000000E+00  0.00000000E+00  0.00000000E+00
  0.00000000E+00  0.00000000E+00  0.00000000E+00
  0.00000000E+00  0.00000000E+00  0.00000000E+00
  0.00000000E+00  0.00000000E+00  0.00000000E+00
  0.00000000E+00  0.00000000E+00  0.00000000E+00
  0.00000000E+00  0.00000000E+00  0.00000000E+00
  0.00000000E+00  0.00000000E+00  0.00000000E+00
  0.00000000E+00  0.00000000E+00  0.00000000E+00
  0.00000000E+00  0.00000000E+00  0.00000000E+00
  0.00000000E+00  0.00000000E+00  0.00000000E+00
  0.00000000E+00  0.00000000E+00  0.00000000E+00
  0.00000000E+00  0.00000000E+00  0.00000000E+00
  0.00000000E+00  0.00000000E+00  0.00000000E+00
  0.00000000E+00  0.00000000E+00  0.00000000E+00
  0.00000000E+00  0.00000000E+00  0.00000000E+00
  0.00000000E+00  0.00000000E+00  0.00000000E+00
  0.00000000E+00  0.00000000E+00  0.00000000E+00
  0.00000000E+00  0.00000000E+00  0.00000000E+00
  0.00000000E+00  0.00000000E+00  0.00000000E+00
  0.00000000E+00  0.00000000E+00  0.00000000E+00
  0.00000000E+00  0.00000000E+00  0.00000000E+00
  0.00000000E+00  0.00000000E+00  0.00000000E+00
  0.00000000E+00  0.00000000E+00  0.00000000E+00
  0.00000000E+00  0.00000000E+00  0.00000000E+00
  0.00000000E+00  0.00000000E+00  0.00000000E+00
  0.00000000E+00  0.00000000E+00  0.00000000E+00
  0.00000000E+00  0.00000000E+00  0.00000000E+00
  0.00000000E+00  0.00000000E+00  0.00000000E+00
  0.00000000E+00  0.00000000E+00  0.00000000E+00
  0.00000000E+00  0.00000000E+00  0.00000000E+00
  0.00000000E+00  0.00000000E+00  0.00000000E+00
  0.00000000E+00  0.00000000E+00  0.00000000E+00
  0.00000000E+00  0.00000000E+00  0.00000000E+00
  0.00000000E+00  0.00000000E+00  0.00000000E+00
  0.00000000E+00  0.00000000E+00  0.00000000E+00
  0.00000000E+00  0.00000000E+00  0.00000000E+00
  0.00000000E+00  0.00000000E+00  0.00000000E+00
  0.00000000E+00  0.00000000E+00  0.00000000E+00
  0.00000000E+00  0.00000000E+00  0.00000000E+00
  0.00000000E+00  0.00000000E+00  0.00000000E+00
  0.00000000E+00  0.00000000E+00  0.00000000E+00
  0.00000000E+00  0.00000000E+00  0.00000000E+00
  0.00000000E+00  0.00000000E+00  0.00000000E+00
  0.00000000E+00  0.00000000E+00  0.00000000E+00
  0.00000000E+00  0.00000000E+00  0.00000000E+00
  0.00000000E+00  0.00000000E+00  0.00000000E+00
  0.00000000E+00  0.00000000E+00  0.00000000E+00
  0.00000000E+00  0.00000000E+00  0.00000000E+00
  0.00000000E+00  0.00000000E+00  0.00000000E+00
  0.00000000E+00  0.00000000E+00  0.00000000E+00
  0.00000000E+00  0.00000000E+00  0.00000000E+00
  0.00000000E+00  0.00000000E+00  0.00000000E+00
  0.00000000E+00  0.00000000E+00  0.00000000E+00
  0.00000000E+00  0.00000000E+00  0.00000000E+00
  0.00000000E+00  0.00000000E+00  0.00000000E+00
  0.00000000E+00  0.00000000E+00  0.00000000E+00
  0.00000000E+00  0.00000000E+00  0.00000000E+00
  0.00000000E+00  0.00000000E+00  0.00000000E+00
  0.00000000E+00  0.00000000E+00  0.00000000E+00
  0.00000000E+00  0.00000000E+00  0.00000000E+00
  0.00000000E+00  0.00000000E+00  0.00000000E+00
  0.00000000E+00  0.00000000E+00  0.00000000E+00
  0.00000000E+00  0.00000000E+00  0.00000000E+00
  0.00000000E+00  0.00000000E+00  0.00000000E+00
  0.00000000E+00  0.00000000E+00  0.00000000E+00
  0.00000000E+00  0.00000000E+00  0.00000000E+00
  0.00000000E+00  0.00000000E+00  0.00000000E+00
  0.00000000E+00  0.00000000E+00  0.00000000E+00
  0.00000000E+00  0.00000000E+00  0.00000000E+00
  0.00000000E+00  0.00000000E+00  0.00000000E+00
  0.00000000E+00  0.00000000E+00  0.00000000E+00
  0.00000000E+00  0.00000000E+00  0.00000000E+00
  0.00000000E+00  0.00000000E+00  0.00000000E+00
  0.00000000E+00  0.00000000E+00  0.00000000E+00
  0.00000000E+00  0.00000000E+00  0.00000000E+00
  0.00000000E+00  0.00000000E+00  0.00000000E+00
  0.00000000E+00  0.00000000E+00  0.00000000E+00
  0.00000000E+00  0.00000000E+00  0.00000000E+00
  0.00000000E+00  0.00000000E+00  0.00000000E+00
  0.00000000E+00  0.00000000E+00  0.00000000E+00
  0.00000000E+00  0.00000000E+00  0.00000000E+00
  0.00000000E+00  0.00000000E+00  0.00000000E+00
  0.00000000E+00  0.00000000E+00  0.00000000E+00
  0.00000000E+00  0.00000000E+00  0.00000000E+00
  0.00000000E+00  0.00000000E+00  0.00000000E+00
  0.00000000E+00  0.00000000E+00  0.00000000E+00
  0.00000000E+00  0.00000000E+00  0.00000000E+00
  0.00000000E+00  0.00000000E+00  0.00000000E+00
  0.00000000E+00  0.00000000E+00  0.00000000E+00
  0.00000000E+00  0.00000000E+00  0.00000000E+00
  0.00000000E+00  0.00000000E+00  0.00000000E+00
  0.00000000E+00  0.00000000E+00  0.00000000E+00
  0.00000000E+00  0.00000000E+00  0.00000000E+00
  0.00000000E+00  0.00000000E+00  0.00000000E+00
  0.00000000E+00  0.00000000E+00  0.00000000E+00
  0.00000000E+00  0.00000000E+00  0.00000000E+00
  0.00000000E+00  0.00000000E+00  0.00000000E+00
  0.00000000E+00  0.00000000E+00  0.00000000E+00
  0.00000000E+00  0.00000000E+00  0.00000000E+00
  0.00000000E+00  0.00000000E+00  0.00000000E+00
  0.00000000E+00  0.00000000E+00  0.00000000E+00
  0.00000000E+00  0.00000000E+00  0.00000000E+00
  0.00000000E+00  0.00000000E+00  0.00000000E+00
  0.00000000E+00  0.00000000E+00  0.00000000E+00
  0.00000000E+00  0.00000000E+00  0.00000000E+00
  0.00000000E+00  0.00000000E+00  0.00000000E+00
  0.00000000E+00  0.00000000E+00  0.00000000E+00
  0.00000000E+00  0.00000000E+00  0.00000000E+00
  0.00000000E+00  0.00000000E+00  0.00000000E+00
  0.00000000E+00  0.00000000E+00  0.00000000E+00
  0.00000000E+00  0.00000000E+00  0.00000000E+00
  0.00000000E+00  0.00000000E+00  0.00000000E+00
  0.00000000E+00  0.00000000E+00  0.00000000E+00
  0.00000000E+00  0.00000000E+00  0.00000000E+00
  0.00000000E+00  0.00000000E+00  0.00000000E+00
  0.00000000E+00  0.00000000E+00  0.00000000E+00
  0.00000000E+00  0.00000000E+00  0.00000000E+00
  0.00000000E+00  0.00000000E+00  0.00000000E+00
  0.00000000E+00  0.00000000E+00  0.00000000E+00
  0.00000000E+00  0.00000000E+00  0.00000000E+00
  0.00000000E+00  0.00000000E+00  0.00000000E+00
  0.00000000E+00  0.00000000E+00  0.00000000E+00
  0.00000000E+00  0.00000000E+00  0.00000000E+00
  0.00000000E+00  0.00000000E+00  0.00000000E+00
  0.00000000E+00  0.00000000E+00  0.00000000E+00
  0.00000000E+00  0.00000000E+00  0.00000000E+00
  0.00000000E+00  0.00000000E+00  0.00000000E+00
  0.00000000E+00  0.00000000E+00  0.00000000E+00
  0.00000000E+00  0.00000000E+00  0.00000000E+00
  0.00000000E+00  0.00000000E+00  0.00000000E+00
  0.00000000E+00  0.00000000E+00  0.00000000E+00
  0.00000000E+00  0.00000000E+00  0.00000000E+00
  0.00000000E+00  0.00000000E+00  0.00000000E+00
  0.00000000E+00  0.00000000E+00  0.00000000E+00
  0.00000000E+00  0.00000000E+00  0.00000000E+00
  0.00000000E+00  0.00000000E+00  0.00000000E+00
  0.00000000E+00  0.00000000E+00  0.00000000E+00
  0.00000000E+00  0.00000000E+00  0.00000000E+00
  0.00000000E+00  0.00000000E+00  0.00000000E+00
  0.00000000E+00  0.00000000E+00  0.00000000E+00
  0.00000000E+00  0.00000000E+00  0.00000000E+00
  0.00000000E+00  0.00000000E+00  0.00000000E+00
  0.00000000E+00  0.00000000E+00  0.00000000E+00
  0.00000000E+00  0.00000000E+00  0.00000000E+00
  0.00000000E+00  0.00000000E+00  0.00000000E+00
  0.00000000E+00  0.00000000E+00  0.00000000E+00
  0.00000000E+00  0.00000000E+00  0.00000000E+00
  0.00000000E+00  0.00000000E+00  0.00000000E+00
  0.00000000E+00  0.00000000E+00  0.00000000E+00
  0.00000000E+00  0.00000000E+00  0.00000000E+00
  0.00000000E+00  0.00000000E+00  0.00000000E+00
  0.00000000E+00  0.00000000E+00  0.00000000E+00
  0.00000000E+00  0.00000000E+00  0.00000000E+00
  0.00000000E+00  0.00000000E+00  0.00000000E+00
  0.00000000E+00  0.00000000E+00  0.00000000E+00
  0.00000000E+00  0.00000000E+00  0.00000000E+00
  0.00000000E+00  0.00000000E+00  0.00000000E+00
  0.00000000E+00  0.00000000E+00  0.00000000E+00
  0.00000000E+00  0.00000000E+00  0.00000000E+00
  0.00000000E+00  0.00000000E+00  0.00000000E+00
  0.00000000E+00  0.00000000E+00  0.00000000E+00
  0.00000000E+00  0.00000000E+00  0.00000000E+00
  0.00000000E+00  0.00000000E+00  0.00000000E+00
  0.00000000E+00  0.00000000E+00  0.00000000E+00
  0.00000000E+00  0.00000000E+00  0.00000000E+00
  0.00000000E+00  0.00000000E+00  0.00000000E+00
  0.00000000E+00  0.00000000E+00  0.00000000E+00
  0.00000000E+00  0.00000000E+00  0.00000000E+00
  0.00000000E+00  0.00000000E+00  0.00000000E+00
  0.00000000E+00  0.00000000E+00  0.00000000E+00
  0.00000000E+00  0.00000000E+00  0.00000000E+00
  0.00000000E+00  0.00000000E+00  0.00000000E+00
  0.00000000E+00  0.00000000E+00  0.00000000E+00
  0.00000000E+00  0.00000000E+00  0.00000000E+00
  0.00000000E+00  0.00000000E+00  0.00000000E+00
  0.00000000E+00  0.00000000E+00  0.00000000E+00
  0.00000000E+00  0.00000000E+00  0.00000000E+00
  0.00000000E+00  0.00000000E+00  0.00000000E+00
  0.00000000E+00  0.00000000E+00  0.00000000E+00
  0.00000000E+00  0.00000000E+00  0.00000000E+00
  0.00000000E+00  0.00000000E+00  0.00000000E+00
  0.00000000E+00  0.00000000E+00  0.00000000E+00
  0.00000000E+00  0.00000000E+00  0.00000000E+00
  0.00000000E+00  0.00000000E+00  0.00000000E+00
  0.00000000E+00  0.00000000E+00  0.00000000E+00
  0.00000000E+00  0.00000000E+00  0.00000000E+00
  0.00000000E+00  0.00000000E+00  0.00000000E+00
  0.00000000E+00  0.00000000E+00  0.00000000E+00
  0.00000000E+00  0.00000000E+00  0.00000000E+00
  0.00000000E+00  0.00000000E+00  0.00000000E+00
  0.00000000E+00  0.00000000E+00  0.00000000E+00
  0.00000000E+00  0.00000000E+00  0.00000000E+00
  0.00000000E+00  0.00000000E+00  0.00000000E+00
  0.00000000E+00  0.00000000E+00  0.00000000E+00
  0.00000000E+00  0.00000000E+00  0.00000000E+00
  0.00000000E+00  0.00000000E+00  0.00000000E+00
  0.00000000E+00  0.00000000E+00  0.00000000E+00
  0.00000000E+00  0.00000000E+00  0.00000000E+00
  0.00000000E+00  0.00000000E+00  0.00000000E+00
  0.00000000E+00  0.00000000E+00  0.00000000E+00
  0.00000000E+00  0.00000000E+00  0.00000000E+00
  0.00000000E+00  0.00000000E+00  0.00000000E+00
  0.00000000E+00  0.00000000E+00  0.00000000E+00
  0.00000000E+00  0.00000000E+00  0.00000000E+00
  0.00000000E+00  0.00000000E+00  0.00000000E+00
  0.00000000E+00  0.00000000E+00  0.00000000E+00
  0.00000000E+00  0.00000000E+00  0.00000000E+00
  0.00000000E+00  0.00000000E+00  0.00000000E+00
  0.00000000E+00  0.00000000E+00  0.00000000E+00
  0.00000000E+00  0.00000000E+00  0.00000000E+00
  0.00000000E+00  0.00000000E+00  0.00000000E+00
  0.00000000E+00  0.00000000E+00  0.00000000E+00
  0.00000000E+00  0.00000000E+00  0.00000000E+00
  0.00000000E+00  0.00000000E+00  0.00000000E+00
  0.00000000E+00  0.00000000E+00  0.00000000E+00
  0.00000000E+00  0.00000000E+00  0.00000000E+00
  0.00000000E+00  0.00000000E+00  0.00000000E+00
  0.00000000E+00  0.00000000E+00  0.00000000E+00
