 C  N Ti                                
   1.00000000000000     
     8.4904413577422826    0.0000000000000001    0.0000000000000000
    -0.0000000000000001    8.4904132228827276    0.0000000000000000
    -0.0000000000000002    0.0000000000000000   19.8713392818999957
   C    N    Ti
    23     1     1
Direct
  0.5006951947154150  0.0816993556683453  0.1525485044335027
  0.3539148545295862  0.1635296300270551  0.1537890735236016
  0.6453701017952586  0.1641336417810523  0.1517229477657339
  0.7975652672810712  0.9177959433054227  0.1531389777753309
  0.7947471748635551  0.0835761773638765  0.1522087743691390
  0.9161927331952174  0.2048177187719003  0.1523416179899331
  0.8310233353440042  0.3567708249574807  0.1518982756311600
  0.2041724145308454  0.0802393858060549  0.1529981725866695
  0.0802600947382710  0.2041300861354475  0.1529936327751132
  0.1635749889399527  0.3538680994713025  0.1537833637115139
  0.0817369294982745  0.5006543904767912  0.1525424119138502
  0.1641730826213322  0.6453244494620421  0.1517256156365347
  0.3568067210817314  0.8309951965654863  0.1519083024014273
  0.2048458052744961  0.9161402961134996  0.1523506606964593
  0.0836193147747753  0.7947068540668102  0.1522135733899691
  0.6498206658968452  0.8344282944038776  0.1537280272257912
  0.8344714005635898  0.6497777176963999  0.1537240384856988
  0.9178392431395772  0.7975136735496500  0.1531404310216023
  0.5023029900659951  0.9129379846199676  0.1525133121832535
  0.9129820787735041  0.5022551312372610  0.1525032488591212
  0.6653706171291055  0.3341227839907165  0.1518145939770900
  0.3316209740580653  0.3315771720238682  0.1567547138555851
  0.3341644918586797  0.6653317192472197  0.1518285991397172
  0.6718523959673729  0.6718084472080608  0.1558613645103754
  0.5012266892945894  0.5011779436385824  0.1853807759626202
 
  0.00000000E+00  0.00000000E+00  0.00000000E+00
  0.00000000E+00  0.00000000E+00  0.00000000E+00
  0.00000000E+00  0.00000000E+00  0.00000000E+00
  0.00000000E+00  0.00000000E+00  0.00000000E+00
  0.00000000E+00  0.00000000E+00  0.00000000E+00
  0.00000000E+00  0.00000000E+00  0.00000000E+00
  0.00000000E+00  0.00000000E+00  0.00000000E+00
  0.00000000E+00  0.00000000E+00  0.00000000E+00
  0.00000000E+00  0.00000000E+00  0.00000000E+00
  0.00000000E+00  0.00000000E+00  0.00000000E+00
  0.00000000E+00  0.00000000E+00  0.00000000E+00
  0.00000000E+00  0.00000000E+00  0.00000000E+00
  0.00000000E+00  0.00000000E+00  0.00000000E+00
  0.00000000E+00  0.00000000E+00  0.00000000E+00
  0.00000000E+00  0.00000000E+00  0.00000000E+00
  0.00000000E+00  0.00000000E+00  0.00000000E+00
  0.00000000E+00  0.00000000E+00  0.00000000E+00
  0.00000000E+00  0.00000000E+00  0.00000000E+00
  0.00000000E+00  0.00000000E+00  0.00000000E+00
  0.00000000E+00  0.00000000E+00  0.00000000E+00
  0.00000000E+00  0.00000000E+00  0.00000000E+00
  0.00000000E+00  0.00000000E+00  0.00000000E+00
  0.00000000E+00  0.00000000E+00  0.00000000E+00
  0.00000000E+00  0.00000000E+00  0.00000000E+00
  0.00000000E+00  0.00000000E+00  0.00000000E+00
