 C  N Fe                                
   1.00000000000000     
     8.4459078713966633   -0.0000108264248997    0.0099850544710064
    -0.0000106884473939    8.4400688401707100    0.0001518141823334
     0.0234177736402977    0.0003572081845223   19.5507422497434682
   C    N    Fe
    22     2     1
Direct
  0.4977905704338010  0.0855960330639565  0.1542695724803368
  0.3515029897715821  0.1661126877322036  0.1542032257775210
  0.6433111868824272  0.1678554188510501  0.1543022157419800
  0.7934149777955313  0.9171831149641848  0.1540083649309773
  0.7934299216047707  0.0827520282477596  0.1540161486784886
  0.9168344519814771  0.2055391657527326  0.1540504375776072
  0.8362765261524905  0.3555104118483335  0.1543671687682960
  0.2036899680543879  0.0837298225545281  0.1540396890114673
  0.0832313990392636  0.2037992200951369  0.1540051901858780
  0.1695879372233400  0.3527969644545702  0.1541607670526688
  0.0906458134873574  0.4999752718652239  0.1542187197339485
  0.1695741945226352  0.6471578008248610  0.1541776368261035
  0.3514885390292987  0.8338412668833948  0.1542082135729850
  0.2036724320187829  0.9162280364947957  0.1540507031248737
  0.0832157315710837  0.7961567220753208  0.1540265492686270
  0.6432949255241126  0.8320803313371385  0.1542807645728012
  0.8362708563086054  0.6444237302499731  0.1543585123506823
  0.9168179530499100  0.7944003537441627  0.1540515575423678
  0.4977785912529660  0.9143451040575272  0.1542609325948685
  0.9202519343668972  0.4999683776801245  0.1543555149637741
  0.6666133267374584  0.3370759359791771  0.1545241308690259
  0.6666036820487902  0.6628602565757592  0.1545028707635839
  0.3312594160134693  0.3299757249533293  0.1542497214253247
  0.3312461035093793  0.6699796237728003  0.1542578482740121
  0.5025461315512917  0.4999695135301263  0.1544665537325941
 
  0.00000000E+00  0.00000000E+00  0.00000000E+00
  0.00000000E+00  0.00000000E+00  0.00000000E+00
  0.00000000E+00  0.00000000E+00  0.00000000E+00
  0.00000000E+00  0.00000000E+00  0.00000000E+00
  0.00000000E+00  0.00000000E+00  0.00000000E+00
  0.00000000E+00  0.00000000E+00  0.00000000E+00
  0.00000000E+00  0.00000000E+00  0.00000000E+00
  0.00000000E+00  0.00000000E+00  0.00000000E+00
  0.00000000E+00  0.00000000E+00  0.00000000E+00
  0.00000000E+00  0.00000000E+00  0.00000000E+00
  0.00000000E+00  0.00000000E+00  0.00000000E+00
  0.00000000E+00  0.00000000E+00  0.00000000E+00
  0.00000000E+00  0.00000000E+00  0.00000000E+00
  0.00000000E+00  0.00000000E+00  0.00000000E+00
  0.00000000E+00  0.00000000E+00  0.00000000E+00
  0.00000000E+00  0.00000000E+00  0.00000000E+00
  0.00000000E+00  0.00000000E+00  0.00000000E+00
  0.00000000E+00  0.00000000E+00  0.00000000E+00
  0.00000000E+00  0.00000000E+00  0.00000000E+00
  0.00000000E+00  0.00000000E+00  0.00000000E+00
  0.00000000E+00  0.00000000E+00  0.00000000E+00
  0.00000000E+00  0.00000000E+00  0.00000000E+00
  0.00000000E+00  0.00000000E+00  0.00000000E+00
  0.00000000E+00  0.00000000E+00  0.00000000E+00
  0.00000000E+00  0.00000000E+00  0.00000000E+00
