 C  N Ti                                
   1.00000000000000     
    12.5043975563840295    0.0000000000000000    0.0000000000000000
    -0.0000000000000004   12.8224875187797558    0.0000000000000000
     0.0000000000000003    0.0000000000000000   20.0000000000000000
   C    N    Ti
    54     4     1
Direct
  0.0521986952701200  0.0473728230192923  0.1583060256995903
  0.1523184115805744  0.1023274934219372  0.1583097987127802
  0.1519045812216850  0.2136943545346196  0.1582617710227688
  0.0522056562720144  0.2690037843776840  0.1582143212019372
  0.2525391591327051  0.0476117002234771  0.1583781058471856
  0.3526502020046086  0.1028414593837156  0.1584085504069087
  0.3513943588652555  0.2143727908137584  0.1583656951492288
  0.2506021371346490  0.2689927540465557  0.1582832445437993
  0.4533097474257748  0.0481715791112546  0.1584224578688010
  0.5522000818281206  0.1059509975406445  0.1584239725140824
  0.5522046183776763  0.2196129602849794  0.1584068992326261
  0.4490955337442378  0.2725931931804452  0.1583858898023270
  0.6510860287732630  0.0481706355180269  0.1584298925692602
  0.7517351664078702  0.1028352857975616  0.1584126852793315
  0.7530131227623471  0.2143767008174829  0.1583690598708795
  0.6553117875127372  0.2725970077645014  0.1583851568747349
  0.8518577632146805  0.0476077325964018  0.1583844238465814
  0.9520833333878231  0.1023236272770812  0.1583137605856799
  0.9524984621378013  0.2136979783865803  0.1582671056342823
  0.8538123831890567  0.2689950349760340  0.1582824809640652
  0.0522106500020223  0.3799519647613668  0.1581614031800880
  0.1500819592783858  0.4363898487546250  0.1581651615270885
  0.1500917836079487  0.5473401487819093  0.1581619904597254
  0.0522096079000746  0.6037795337008595  0.1581618751085945
  0.2485687994880520  0.3806270093970802  0.1582419793444021
  0.3458879631192604  0.4357518600915249  0.1582963594760729
  0.3458910700193745  0.5479844961877202  0.1582962703837249
  0.2485696895583702  0.6031009568233250  0.1582312725587233
  0.7585318816969839  0.4357576485671678  0.1583065777174933
  0.7585188120649067  0.5479880932014748  0.1582968015892135
  0.8558556714089121  0.3806352676167479  0.1582476187128235
  0.9543438166097027  0.4363961043327075  0.1581641061157392
  0.9543262879797553  0.5473492974836134  0.1581656339730135
  0.8558342793836863  0.6031035833657449  0.1582338425192578
  0.0522149143512600  0.7147257901615203  0.1582233713924834
  0.1519236097283840  0.7700267959123067  0.1582646557930007
  0.0522118152952501  0.9363371797560391  0.1583043914744009
  0.2506135901212846  0.7147355169280402  0.1582826261124104
  0.3513988399806914  0.7693785695863795  0.1583451485244629
  0.3526599883999555  0.8808994028026653  0.1583904442117235
  0.2525361917629637  0.9361048337562138  0.1583640465100777
  0.4490955532099440  0.7112180289708673  0.1583782618981257
  0.5522073522678348  0.7641983641930865  0.1584085644936618
  0.5522087709854444  0.8778405191493353  0.1584018293813972
  0.4533181804138630  0.9355748103769199  0.1584030045544651
  0.6553184986827884  0.7112122735008943  0.1583702789460306
  0.7530208211635712  0.7693737527675567  0.1583438229753986
  0.7517645489425062  0.8808933800748699  0.1583958778332628
  0.6511017750698365  0.9355703588538291  0.1584054848109490
  0.8538089772891476  0.7147349188933967  0.1582799161734356
  0.9525044772845801  0.7700226788246990  0.1582560766729736
  0.8518890162941143  0.9360979083948632  0.1583736729813102
  0.1523182506727744  0.8813814628120547  0.1583061347247764
  0.9521089414843180  0.8813778097725529  0.1583055328316238
  0.4426543900887479  0.3801887909232616  0.1583691588371944
  0.4426383324370301  0.6036109316622855  0.1583711991504254
  0.6617595924910508  0.3801997933155165  0.1583784234524229
  0.6617690039852721  0.6036046239127234  0.1583718485341304
  0.5521911552264264  0.4919657946771356  0.1584646814370328
 
  0.00000000E+00  0.00000000E+00  0.00000000E+00
  0.00000000E+00  0.00000000E+00  0.00000000E+00
  0.00000000E+00  0.00000000E+00  0.00000000E+00
  0.00000000E+00  0.00000000E+00  0.00000000E+00
  0.00000000E+00  0.00000000E+00  0.00000000E+00
  0.00000000E+00  0.00000000E+00  0.00000000E+00
  0.00000000E+00  0.00000000E+00  0.00000000E+00
  0.00000000E+00  0.00000000E+00  0.00000000E+00
  0.00000000E+00  0.00000000E+00  0.00000000E+00
  0.00000000E+00  0.00000000E+00  0.00000000E+00
  0.00000000E+00  0.00000000E+00  0.00000000E+00
  0.00000000E+00  0.00000000E+00  0.00000000E+00
  0.00000000E+00  0.00000000E+00  0.00000000E+00
  0.00000000E+00  0.00000000E+00  0.00000000E+00
  0.00000000E+00  0.00000000E+00  0.00000000E+00
  0.00000000E+00  0.00000000E+00  0.00000000E+00
  0.00000000E+00  0.00000000E+00  0.00000000E+00
  0.00000000E+00  0.00000000E+00  0.00000000E+00
  0.00000000E+00  0.00000000E+00  0.00000000E+00
  0.00000000E+00  0.00000000E+00  0.00000000E+00
  0.00000000E+00  0.00000000E+00  0.00000000E+00
  0.00000000E+00  0.00000000E+00  0.00000000E+00
  0.00000000E+00  0.00000000E+00  0.00000000E+00
  0.00000000E+00  0.00000000E+00  0.00000000E+00
  0.00000000E+00  0.00000000E+00  0.00000000E+00
  0.00000000E+00  0.00000000E+00  0.00000000E+00
  0.00000000E+00  0.00000000E+00  0.00000000E+00
  0.00000000E+00  0.00000000E+00  0.00000000E+00
  0.00000000E+00  0.00000000E+00  0.00000000E+00
  0.00000000E+00  0.00000000E+00  0.00000000E+00
  0.00000000E+00  0.00000000E+00  0.00000000E+00
  0.00000000E+00  0.00000000E+00  0.00000000E+00
  0.00000000E+00  0.00000000E+00  0.00000000E+00
  0.00000000E+00  0.00000000E+00  0.00000000E+00
  0.00000000E+00  0.00000000E+00  0.00000000E+00
  0.00000000E+00  0.00000000E+00  0.00000000E+00
  0.00000000E+00  0.00000000E+00  0.00000000E+00
  0.00000000E+00  0.00000000E+00  0.00000000E+00
  0.00000000E+00  0.00000000E+00  0.00000000E+00
  0.00000000E+00  0.00000000E+00  0.00000000E+00
  0.00000000E+00  0.00000000E+00  0.00000000E+00
  0.00000000E+00  0.00000000E+00  0.00000000E+00
  0.00000000E+00  0.00000000E+00  0.00000000E+00
  0.00000000E+00  0.00000000E+00  0.00000000E+00
  0.00000000E+00  0.00000000E+00  0.00000000E+00
  0.00000000E+00  0.00000000E+00  0.00000000E+00
  0.00000000E+00  0.00000000E+00  0.00000000E+00
  0.00000000E+00  0.00000000E+00  0.00000000E+00
  0.00000000E+00  0.00000000E+00  0.00000000E+00
  0.00000000E+00  0.00000000E+00  0.00000000E+00
  0.00000000E+00  0.00000000E+00  0.00000000E+00
  0.00000000E+00  0.00000000E+00  0.00000000E+00
  0.00000000E+00  0.00000000E+00  0.00000000E+00
  0.00000000E+00  0.00000000E+00  0.00000000E+00
  0.00000000E+00  0.00000000E+00  0.00000000E+00
  0.00000000E+00  0.00000000E+00  0.00000000E+00
  0.00000000E+00  0.00000000E+00  0.00000000E+00
  0.00000000E+00  0.00000000E+00  0.00000000E+00
  0.00000000E+00  0.00000000E+00  0.00000000E+00
