 C  N Cu                                
   1.00000000000000     
     8.4044499549480136    0.0002785201238942   -0.0000016232455225
     0.0002786578775766    8.4044577242269085    0.0000013661483145
    -0.0000099217971041    0.0000056124061178   17.8922230678837231
   C    N    Cu
    20     4     1
Direct
  0.4999629007270232  0.0869042257351431  0.1542548053270487
  0.3529943662364980  0.1681838607398224  0.1542454974674828
  0.6471044860720839  0.1682113428533591  0.1542295423204440
  0.7972375046323196  0.9152647708947219  0.1541233829143495
  0.7972167241367807  0.0846798112068197  0.1541250319082444
  0.9152922900046354  0.2027398509784421  0.1541222520470484
  0.8318290031000881  0.3529950950414113  0.1542193977449572
  0.2027903644304311  0.0846802738424189  0.1541413811298951
  0.0847348557369389  0.2027135074058816  0.1541299619786894
  0.1681708334183408  0.3530749653511643  0.1542327756431143
  0.0870503444027510  0.4999150947543592  0.1542409879381467
  0.1681989049567640  0.6469499264734470  0.1542364407931460
  0.3529234693172154  0.8317336932436004  0.1542482577490189
  0.2028114257830655  0.9152653515898118  0.1541435804530798
  0.0847355236743353  0.7972050150231625  0.1541330050313523
  0.6470337566635974  0.8317610683882064  0.1542256662941474
  0.8318570047406481  0.6468700721911612  0.1542164306692630
  0.9152932759317206  0.7972314325030240  0.1541214422667592
  0.5000649541204564  0.9130409702888819  0.1542542277412337
  0.9129776160840962  0.5000299943639265  0.1542313592623878
  0.6688437981523327  0.3310783202656720  0.1542880471619062
  0.3311842739701082  0.3310765805472771  0.1543061022996207
  0.3311842561381225  0.6688667411379523  0.1543109780303500
  0.6688435781949363  0.6688685639067143  0.1542816610597740
  0.5000140493058196  0.4999723888617889  0.1543507945893332
 
  0.00000000E+00  0.00000000E+00  0.00000000E+00
  0.00000000E+00  0.00000000E+00  0.00000000E+00
  0.00000000E+00  0.00000000E+00  0.00000000E+00
  0.00000000E+00  0.00000000E+00  0.00000000E+00
  0.00000000E+00  0.00000000E+00  0.00000000E+00
  0.00000000E+00  0.00000000E+00  0.00000000E+00
  0.00000000E+00  0.00000000E+00  0.00000000E+00
  0.00000000E+00  0.00000000E+00  0.00000000E+00
  0.00000000E+00  0.00000000E+00  0.00000000E+00
  0.00000000E+00  0.00000000E+00  0.00000000E+00
  0.00000000E+00  0.00000000E+00  0.00000000E+00
  0.00000000E+00  0.00000000E+00  0.00000000E+00
  0.00000000E+00  0.00000000E+00  0.00000000E+00
  0.00000000E+00  0.00000000E+00  0.00000000E+00
  0.00000000E+00  0.00000000E+00  0.00000000E+00
  0.00000000E+00  0.00000000E+00  0.00000000E+00
  0.00000000E+00  0.00000000E+00  0.00000000E+00
  0.00000000E+00  0.00000000E+00  0.00000000E+00
  0.00000000E+00  0.00000000E+00  0.00000000E+00
  0.00000000E+00  0.00000000E+00  0.00000000E+00
  0.00000000E+00  0.00000000E+00  0.00000000E+00
  0.00000000E+00  0.00000000E+00  0.00000000E+00
  0.00000000E+00  0.00000000E+00  0.00000000E+00
  0.00000000E+00  0.00000000E+00  0.00000000E+00
  0.00000000E+00  0.00000000E+00  0.00000000E+00
