 C Co  N  H                             
   1.00000000000000     
    22.1399993895999998    0.0000000000000000    0.0000000000000000
   -11.0699996947999999   19.1738019112000018    0.0000000000000000
     0.0000000000000000    0.0000000000000000   16.0000000000000000
   C    Co   N    H 
   222     1     4    60
Direct
  0.0002668499609885  0.9991552573402882  0.1039085694845805
  0.0373372869622075  0.0732891052376717  0.1047113528230310
  0.0003161859161242  0.1103442123540204  0.1047311531383215
  0.0373693935365015  0.1844502371278779  0.1024305262149628
  0.0003213654038713  0.2214850399323961  0.1018231633446567
  0.0373444121979048  0.2955386081949833  0.0980258563312364
  0.0002911329367082  0.3325671070020482  0.0971801153646197
  0.0373215402323533  0.4066318707713416  0.0941055493022094
  0.0002770514388174  0.4436605800368577  0.0927095587312469
  0.0373234235619239  0.5177568092026008  0.0917284547591662
  0.0002987838235286  0.5547912364133938  0.0893134157837220
  0.0373533407009011  0.6288900733988219  0.0909866958363077
  0.0003212530211657  0.6659236473252893  0.0888759896688737
  0.0373390803397616  0.7399707321677838  0.0933791758473231
  0.0002826013278385  0.7769878256749851  0.0930482470786085
  0.0372870131889463  0.8510044758948270  0.0984555882316695
  0.0002439610338204  0.8880305040644567  0.0992982946235833
  0.0372872723291812  0.9621046785194790  0.1031272764096625
  0.1113685598302959  0.9991701299866822  0.1049592172489748
  0.1484559452765431  0.0733145119735086  0.1050393822587544
  0.1114233387501913  0.1103540170284553  0.1040106205670995
  0.1484733334544111  0.1844431394763160  0.1010156272794718
  0.1114154322582936  0.2214509998054431  0.0994741240526993
  0.1484232391500456  0.2954740981825281  0.0948003724568028
  0.1113713944472025  0.3325059877848252  0.0942784277249982
  0.1483965360478160  0.4065809214195705  0.0910389849135556
  0.1113767949989383  0.4436353212055877  0.0921260071994860
  0.1484380019435368  0.5177392966291683  0.0922233009150963
  0.1113940280390328  0.5547692047164201  0.0932388325877721
  0.1484323723893513  0.6288496109860477  0.0955603437448151
  0.1113705590761479  0.6658668353255696  0.0954184485963052
  0.1484007956203050  0.7399260888563026  0.0990440987227532
  0.1113350982487902  0.7769381964830469  0.0986555270305419
  0.1483772644470863  0.8509986084105290  0.1026329130249717
  0.1113240260272295  0.8880201499854119  0.1025169697195079
  0.1484000365641600  0.9621286798510589  0.1052392980936283
  0.2224941158872155  0.9992092768082556  0.1068572459731578
  0.2595951251213056  0.0733561097038748  0.1061530553295107
  0.2225525472755173  0.1103883301133111  0.1046159782309144
  0.2596123911817220  0.1844869027859773  0.1012875780440274
  0.2225420864237543  0.2214729709171894  0.0987951037399333
  0.2595567052208855  0.2954982224246484  0.0940167643632401
  0.2224743084935335  0.3324698883308629  0.0916566564575684
  0.2595134979298560  0.4065540557965192  0.0884986575032508
  0.2224601806046468  0.4436123009818156  0.0884151404959722
  0.2595478711152122  0.5177609089510158  0.0892617510166031
  0.2225201048421296  0.5547729329124557  0.0920103644015400
  0.2595564321279878  0.6288331658176648  0.0956411799159853
  0.2224941124936199  0.6658366829378394  0.0979112195404115
  0.2595174675721545  0.7398942653638619  0.1017417902800532
  0.2224457877807212  0.7769138412062956  0.1026653102409582
  0.2595000609869016  0.8510048321458932  0.1058054254121871
  0.2224422967723163  0.8880342586908351  0.1058541019242703
  0.2595324525244476  0.9621659020247082  0.1075054971281556
  0.3336302488480810  0.9992452479272115  0.1083243423863191
  0.3707233265709234  0.0733899882906170  0.1069414820499835
  0.3336925975764746  0.1104330803412075  0.1053643209023181
  0.3707585340551365  0.1845237285017919  0.1016323036532294
  0.3336970998492269  0.2215256607826186  0.0992930726676990
  0.3707198785170372  0.2955606097008980  0.0944888420594314
  0.3336300109832901  0.3325313389239538  0.0921812101719351
  0.3706695262771332  0.4066039972665383  0.0889213748738995
  0.3336055922584439  0.4436160721574888  0.0880457396341336
  0.3706681517562427  0.5177383840934505  0.0884768879499248
  0.3336218545668425  0.5547735307801593  0.0900283831797015
  0.3706729687854031  0.6288322611541325  0.0938786525405364
  0.3336250253332760  0.6658359686272550  0.0970244264611543
  0.3706549287879156  0.7398853045827981  0.1013792506640483
  0.3335951500413041  0.7769036501499075  0.1037693548862654
  0.3706423752904744  0.8510046449278453  0.1068410346451059
  0.3335878091720605  0.8880475007864855  0.1077195308553293
  0.3706657215833133  0.9621880735127902  0.1087936167143324
  0.4447614950836616  0.9992536243516177  0.1089039449557009
  0.4818319905674296  0.0733974205325065  0.1073039827825931
  0.4448113098762820  0.1104565334503297  0.1056824518503248
  0.4818616563784622  0.1845345136464026  0.1014727590926713
  0.4448263348740770  0.2215584911694193  0.0990485752005914
  0.4818444344142718  0.2955736964808516  0.0934845512952949
  0.4447803193110259  0.3325716910846389  0.0915508152924440
  0.4818047706615567  0.4066182947421813  0.0871334447414541
  0.4447430174858440  0.4436385771763278  0.0871441288014580
  0.4818042068714725  0.5177514079444344  0.0862553496713134
  0.4447508812994625  0.5547678178856944  0.0884775423931650
  0.4818044037659958  0.6288503801300663  0.0911402088842143
  0.4447546294129890  0.6658405796197016  0.0947947210407069
  0.4817844268559261  0.7398917274621367  0.0990400148109349
  0.4447400869669546  0.7769031582883017  0.1024789960417108
  0.4817729161479674  0.8509914287249268  0.1058935158266574
  0.4447323132155105  0.8880419569637604  0.1077582801382303
  0.4817891767219043  0.9621828876494003  0.1089414143877737
  0.5558791269653529  0.9992376087773259  0.1087895347040442
  0.5929305922546422  0.0733827786584981  0.1076377845076356
  0.5559127832313484  0.1104520088707659  0.1060503879857442
  0.5929467389909341  0.1845335758367124  0.1018690713507984
  0.5559250412560351  0.2215628697533155  0.0988278532551653
  0.5929327575139443  0.2955589876638424  0.0925603312004946
  0.5558875799677142  0.3325700674018811  0.0896689163769715
  0.5928968015050630  0.4065780937249611  0.0835886466613634
  0.5558416897786798  0.4436237290881641  0.0832596915073665
  0.5928997731401283  0.5177503666250243  0.0808227009758721
  0.5558740801423270  0.5547912881737979  0.0839466354082351
  0.5929310913518657  0.6289068771698317  0.0858179443159635
  0.5558865674206578  0.6658793236795914  0.0905202316263198
  0.5929129915365343  0.7399355358826613  0.0946077674578604
  0.5558679133526739  0.7769162502262785  0.0992371499579585
  0.5928870038303017  0.8509853953474575  0.1032001209351100
  0.5558585343192748  0.8880262062597600  0.1062525226924154
  0.5929006135976859  0.9621567836832091  0.1081333312786644
  0.6669815962775960  0.9992069704023171  0.1079474178693857
  0.7040327938077289  0.0733568571719807  0.1077665200592090
  0.6670102455760630  0.1104331243633914  0.1067178970074041
  0.7040414584806375  0.1845365735817768  0.1032844106072718
  0.6670152185157067  0.2215661264362011  0.0999636236957654
  0.7040190242307999  0.2955742845480665  0.0940058841315789
  0.6669898962068488  0.3325656434211427  0.0895029188630174
  0.7040014978248543  0.4065447283034583  0.0825847420320785
  0.6669477138331759  0.4435748734882655  0.0793898814553126
  0.7040213543565728  0.5177096952411433  0.0750780555370906
  0.6669723817256928  0.5548009750754404  0.0772360376514370
  0.7040559201293772  0.6289758832634028  0.0791924481564364
  0.6670140928265162  0.6659611037622419  0.0842956125368781
  0.7040423198061517  0.7400094750992372  0.0890962319589265
  0.6669952650343254  0.7769669140302622  0.0942579640156271
  0.7040089388794369  0.8510111604537040  0.0990764487437966
  0.6669718935749364  0.8880214003962483  0.1032000139656661
  0.7040056291598408  0.9621309662855290  0.1062524297318141
  0.7780849716883733  0.9991764670580149  0.1062196672020706
  0.8151425639683795  0.0733250879326466  0.1070771108328125
  0.7781093651370184  0.1103997572707780  0.1069748224282483
  0.8151489647345733  0.1845188278046384  0.1045495947681071
  0.7781067126643042  0.2215575153239125  0.1020120167262300
  0.8151172258730187  0.2956052538189046  0.0972671977074972
  0.7780872580034879  0.3325930276918006  0.0926495723921061
  0.8151116146580306  0.4066125660419246  0.0869233982166856
  0.7781126421393435  0.4436001403039103  0.0812169608932160
  0.8152127796117172  0.5177220662390345  0.0770392203409831
  0.7781919324703719  0.5548106513661077  0.0739406152981533
  0.8152769536912370  0.6290118938052227  0.0764287527500246
  0.7781924743074574  0.6660484990430889  0.0792478823078172
  0.8151898771606345  0.7400712434889462  0.0855096565024107
  0.7781215584313160  0.7770360870321266  0.0899361977766687
  0.8151145357196082  0.8510249154235153  0.0959710601271072
  0.7780807915885949  0.8880335242609252  0.0997480892705657
  0.8151072240978270  0.9621089659524016  0.1038799290371143
  0.8891822059911896  0.9991594619944612  0.1045084827567484
  0.9262404311538578  0.0732935762136909  0.1057273931765676
  0.8892133539819089  0.1103638047975392  0.1061619906624279
  0.9262646419648343  0.1844836984966756  0.1042599989229201
  0.8892137503245002  0.2215233448237664  0.1030261060920303
  0.9262358420434184  0.2955884526983459  0.0992791960283790
  0.8891830380005729  0.3325983401409567  0.0963828824053158
  0.9262049189952155  0.4066492345786608  0.0924354802719369
  0.8891914739525736  0.4436495397413817  0.0879389876915541
  0.9262586936151043  0.5177625937641018  0.0855939855662465
  0.8892828574979029  0.5547997919252369  0.0808242684310951
  0.9263589954878234  0.6289530322713757  0.0827765391839970
  0.8893248210402757  0.6660242885405467  0.0812241104914269
  0.9263006630456323  0.7400359619409180  0.0873535024167036
  0.8892332236589638  0.7770565142495622  0.0891257886483813
  0.9262075665292798  0.8510273799468945  0.0956260275459046
  0.8891639902863293  0.8880386132708774  0.0982150250594817
  0.9261942785352851  0.9620993762024070  0.1026111578501618
  0.6279913615756670  0.5125194317948217  0.4310987826318776
  0.6970996921652366  0.5567120326923275  0.3943012552520719
  0.7040797551747553  0.6218500522415711  0.3825331603938641
  0.6394687093464673  0.6173225696984104  0.4128869410289069
  0.6284933120949536  0.6733558626578728  0.4318459079931047
  0.5634945138522707  0.6632192046047110  0.4600181575233743
  0.5485859636196998  0.7150972651215375  0.4963174892183643
  0.4767571377220193  0.6831450532054465  0.5046278202611926
  0.4482001149239648  0.6139054273834260  0.4679283493682994
  0.3795234654193981  0.5706742547360407  0.4387312850808242
  0.3563144196645589  0.5027221300837709  0.4087906496378468
  0.2899312384060681  0.4571377174421073  0.3679088763674143
  0.2798182554506132  0.3902768841871949  0.3720424580285159
  0.3418690517614880  0.3959620924512356  0.4124988760970232
  0.3509493534073602  0.3410943752677775  0.4428176301009024
  0.4158456524203772  0.3513484770991291  0.4712452931073337
  0.5311945212005048  0.4013420873863798  0.4866751701922031
  0.5007112221928988  0.3323297476140081  0.5251443695315041
  0.4295405019068246  0.3000037239420144  0.5118603302520222
  0.6021399262189798  0.4455199915849122  0.4665463244751638
  0.7012309547784039  0.3460093700803957  0.4454564736280404
  0.6518769477505627  0.3671557981173205  0.4331113484206779
  0.6528693229965842  0.4205167684252807  0.4822764031881985
  0.7045157176788476  0.4519637100471681  0.5445834456382428
  0.7533486887366558  0.4302368249361295  0.5577750968642468
  0.7520048855535875  0.3772983814107567  0.5080760807231337
  0.7491266384094388  0.5337840776215376  0.3710819540908546
  0.7875370853183632  0.5583451960060313  0.2870555937074755
  0.7667042073814803  0.6833154549161881  0.3422664245838651
  0.8355754250775755  0.7123802293234491  0.3919845705240121
  0.5360648714396175  0.3029893054890713  0.5798116195711200
  0.5400859300332577  0.2392655902470407  0.5466293499487979
  0.3804671109374468  0.2253012573616857  0.5377958487882276
  0.3702744367525178  0.1700860693862625  0.4712524447765583
  0.2187501583327759  0.3287577238475797  0.3300519452839279
  0.1509786550964749  0.2886709290429060  0.3819105498356771
  0.2471983316059422  0.4792892917992081  0.3157596313202777
  0.1712815240597998  0.4551396324227817  0.3425112614221180
  0.5986072548086967  0.7897959938762864  0.5217953020734698
  0.5917532096987260  0.8441504553403700  0.4680800964989748
  0.4348057001560803  0.7119404399292819  0.5465313612270677
  0.4620178029501839  0.7507870165618107  0.6304622101854244
  0.7421907512790885  0.7743851747674643  0.4842528358483109
  0.6882890067206147  0.7467077756504185  0.4243108018295019
  0.6910841675727081  0.7897345132778923  0.3577326138879955
  0.7466064773642372  0.8583935781625703  0.3508673845940748
  0.7998531992615450  0.8854340788226163  0.4110381083098246
  0.7973193571117375  0.8432624141792060  0.4779705098237340
  0.2042759127891544  0.1530720786952481  0.4040897679276487
  0.1666775650994288  0.1385659421638962  0.4790354446281483
  0.1884080139306011  0.1903065376579775  0.5408980831409070
  0.2471941184970727  0.2560769843182445  0.5274468586459685
  0.2866006181578049  0.2706887564524723  0.4532173596365786
  0.2641499064792107  0.2183418375370572  0.3918317260038526
  0.2718396232553707  0.5681537760842782  0.4950560621036955
  0.2251626376201540  0.5935141439535515  0.4980381880201148
  0.2340046315183084  0.6473669247290346  0.4442294044190997
  0.2902299575434920  0.6761188479234038  0.3879674724884231
  0.3376624479197672  0.6516979780428538  0.3862533178465796
  0.3290351522009243  0.5972038178271906  0.4396550886401477
  0.4905263883805506  0.5071759594201430  0.4431188107237083
  0.5915501089564695  0.5484758962554205  0.4345435560906629
  0.3906026985969080  0.4659457961754627  0.4267255711885047
  0.4784263556758157  0.4139984081801465  0.4607458279764631
  0.5017162746826755  0.6000277742214317  0.4500109467598624
  0.6997213644272173  0.3047899197229970  0.4064254466836748
  0.6127586043066517  0.3432961099661522  0.3838517452727910
  0.7060765313200877  0.4936987822487597  0.5825786345200044
  0.7927254946761850  0.4549258125596034  0.6066163646771227
  0.7901984954590395  0.3605435013832551  0.5180822304558048
  0.7213897532893070  0.4769508532351088  0.3685531437101724
  0.7875855265742658  0.5474423417432366  0.4217919879648899
  0.8298256090253584  0.6127648907515584  0.2867122938268293
  0.7509319671370228  0.5515487217015136  0.2369881245818119
  0.8109466922880771  0.5260631786093392  0.2718380205847003
  0.7561958395287686  0.7256565009997586  0.3297335558267844
  0.7741750890467266  0.6665472067317366  0.2803727670896238
  0.8502496456570766  0.6724843182339990  0.4032582366800073
  0.8314174512575073  0.7324380123857983  0.4530898868520431
  0.8784648597791537  0.7555849491663156  0.3575312235096895
  0.5072668447952189  0.2877016440301218  0.6395981200563253
  0.5885472629741483  0.3446195545803180  0.5958669681210600
  0.5534658557956548  0.2445555529609778  0.4800181297250846
  0.4905100333012470  0.1904865261986106  0.5545434386022996
  0.5803433372133308  0.2339604344549160  0.5806319707826226
  0.3294464148208345  0.2173746489461283  0.5560483403293621
  0.4022114824044634  0.2152069674974769  0.5945760856901813
  0.3487871978260650  0.1776855748298597  0.4131329235821911
  0.3337010047116408  0.1173282035166986  0.4944561564947007
  0.4196337827283569  0.1724786553354973  0.4555919091902788
  0.2339849513910718  0.2917674628645551  0.3067602752430391
  0.2064443233460087  0.3494712791658792  0.2741161140538810
  0.1571209670654018  0.2598533018817542  0.4334919403300907
  0.1082456390816047  0.2509802129895838  0.3418727971460124
  0.1350979429863542  0.3241732100463404  0.4088561918645826
  0.2453878134255633  0.4591618774923358  0.2523720510235131
  0.2756358436709883  0.5360430295518596  0.3093504731561081
  0.1520000156675307  0.4854607157326812  0.3088398443919312
  0.1674099505740397  0.4625962436357135  0.4096251553953587
  0.1360215968076700  0.3999622736577249  0.3280593270799609
  0.6525194206170239  0.8012786803246897  0.5199081560573510
  0.5888012330001328  0.7962736629906483  0.5876000034012432
  0.6292462112629060  0.8974215608151017  0.4888114282012681
  0.5391945866473027  0.8374467522592568  0.4717977080755396
  0.6023646264382666  0.8396614984097536  0.4019912468700343
  0.3823626479882269  0.6683379835758909  0.5584556931643354
  0.4271303023400738  0.7460347895219285  0.5027798403844711
  0.4785562275459297  0.7226711697273537  0.6728656489933448
  0.4195991643951575  0.7546603195089414  0.6611342173843759
  0.5056486703669553  0.8042039511552919  0.6230432987656181
  0.7399601053712351  0.7415883571189280  0.5364845409533193
  0.6496618109555095  0.7686721094348545  0.3109133640539021
  0.7481437177854391  0.8908759127809441  0.2986958447850867
  0.8429573563094418  0.9389856644110262  0.4057681553944886
  0.8384610050135414  0.8638746293583203  0.5251897542832937
  0.1875580986748655  0.1134139076435655  0.3552565284609521
  0.1205310266756972  0.0875084848258492  0.4889052459955476
  0.1592621506414208  0.1797523909828366  0.5992742476483301
  0.2638725713402039  0.2965286449772738  0.5752668619302507
  0.2938808451522332  0.2290610704290272  0.3338792831967198
  0.2647616370368570  0.5259381025404770  0.5365607442778080
  0.1814825883849268  0.5706169504604028  0.5418423990968049
  0.1972005326088233  0.6665759522767262  0.4458092096605119
  0.2971693689388770  0.7176690908090895  0.3453521657275426
  0.3815818938980905  0.6743752971906376  0.3427839993852222
 
  0.00000000E+00  0.00000000E+00  0.00000000E+00
  0.00000000E+00  0.00000000E+00  0.00000000E+00
  0.00000000E+00  0.00000000E+00  0.00000000E+00
  0.00000000E+00  0.00000000E+00  0.00000000E+00
  0.00000000E+00  0.00000000E+00  0.00000000E+00
  0.00000000E+00  0.00000000E+00  0.00000000E+00
  0.00000000E+00  0.00000000E+00  0.00000000E+00
  0.00000000E+00  0.00000000E+00  0.00000000E+00
  0.00000000E+00  0.00000000E+00  0.00000000E+00
  0.00000000E+00  0.00000000E+00  0.00000000E+00
  0.00000000E+00  0.00000000E+00  0.00000000E+00
  0.00000000E+00  0.00000000E+00  0.00000000E+00
  0.00000000E+00  0.00000000E+00  0.00000000E+00
  0.00000000E+00  0.00000000E+00  0.00000000E+00
  0.00000000E+00  0.00000000E+00  0.00000000E+00
  0.00000000E+00  0.00000000E+00  0.00000000E+00
  0.00000000E+00  0.00000000E+00  0.00000000E+00
  0.00000000E+00  0.00000000E+00  0.00000000E+00
  0.00000000E+00  0.00000000E+00  0.00000000E+00
  0.00000000E+00  0.00000000E+00  0.00000000E+00
  0.00000000E+00  0.00000000E+00  0.00000000E+00
  0.00000000E+00  0.00000000E+00  0.00000000E+00
  0.00000000E+00  0.00000000E+00  0.00000000E+00
  0.00000000E+00  0.00000000E+00  0.00000000E+00
  0.00000000E+00  0.00000000E+00  0.00000000E+00
  0.00000000E+00  0.00000000E+00  0.00000000E+00
  0.00000000E+00  0.00000000E+00  0.00000000E+00
  0.00000000E+00  0.00000000E+00  0.00000000E+00
  0.00000000E+00  0.00000000E+00  0.00000000E+00
  0.00000000E+00  0.00000000E+00  0.00000000E+00
  0.00000000E+00  0.00000000E+00  0.00000000E+00
  0.00000000E+00  0.00000000E+00  0.00000000E+00
  0.00000000E+00  0.00000000E+00  0.00000000E+00
  0.00000000E+00  0.00000000E+00  0.00000000E+00
  0.00000000E+00  0.00000000E+00  0.00000000E+00
  0.00000000E+00  0.00000000E+00  0.00000000E+00
  0.00000000E+00  0.00000000E+00  0.00000000E+00
  0.00000000E+00  0.00000000E+00  0.00000000E+00
  0.00000000E+00  0.00000000E+00  0.00000000E+00
  0.00000000E+00  0.00000000E+00  0.00000000E+00
  0.00000000E+00  0.00000000E+00  0.00000000E+00
  0.00000000E+00  0.00000000E+00  0.00000000E+00
  0.00000000E+00  0.00000000E+00  0.00000000E+00
  0.00000000E+00  0.00000000E+00  0.00000000E+00
  0.00000000E+00  0.00000000E+00  0.00000000E+00
  0.00000000E+00  0.00000000E+00  0.00000000E+00
  0.00000000E+00  0.00000000E+00  0.00000000E+00
  0.00000000E+00  0.00000000E+00  0.00000000E+00
  0.00000000E+00  0.00000000E+00  0.00000000E+00
  0.00000000E+00  0.00000000E+00  0.00000000E+00
  0.00000000E+00  0.00000000E+00  0.00000000E+00
  0.00000000E+00  0.00000000E+00  0.00000000E+00
  0.00000000E+00  0.00000000E+00  0.00000000E+00
  0.00000000E+00  0.00000000E+00  0.00000000E+00
  0.00000000E+00  0.00000000E+00  0.00000000E+00
  0.00000000E+00  0.00000000E+00  0.00000000E+00
  0.00000000E+00  0.00000000E+00  0.00000000E+00
  0.00000000E+00  0.00000000E+00  0.00000000E+00
  0.00000000E+00  0.00000000E+00  0.00000000E+00
  0.00000000E+00  0.00000000E+00  0.00000000E+00
  0.00000000E+00  0.00000000E+00  0.00000000E+00
  0.00000000E+00  0.00000000E+00  0.00000000E+00
  0.00000000E+00  0.00000000E+00  0.00000000E+00
  0.00000000E+00  0.00000000E+00  0.00000000E+00
  0.00000000E+00  0.00000000E+00  0.00000000E+00
  0.00000000E+00  0.00000000E+00  0.00000000E+00
  0.00000000E+00  0.00000000E+00  0.00000000E+00
  0.00000000E+00  0.00000000E+00  0.00000000E+00
  0.00000000E+00  0.00000000E+00  0.00000000E+00
  0.00000000E+00  0.00000000E+00  0.00000000E+00
  0.00000000E+00  0.00000000E+00  0.00000000E+00
  0.00000000E+00  0.00000000E+00  0.00000000E+00
  0.00000000E+00  0.00000000E+00  0.00000000E+00
  0.00000000E+00  0.00000000E+00  0.00000000E+00
  0.00000000E+00  0.00000000E+00  0.00000000E+00
  0.00000000E+00  0.00000000E+00  0.00000000E+00
  0.00000000E+00  0.00000000E+00  0.00000000E+00
  0.00000000E+00  0.00000000E+00  0.00000000E+00
  0.00000000E+00  0.00000000E+00  0.00000000E+00
  0.00000000E+00  0.00000000E+00  0.00000000E+00
  0.00000000E+00  0.00000000E+00  0.00000000E+00
  0.00000000E+00  0.00000000E+00  0.00000000E+00
  0.00000000E+00  0.00000000E+00  0.00000000E+00
  0.00000000E+00  0.00000000E+00  0.00000000E+00
  0.00000000E+00  0.00000000E+00  0.00000000E+00
  0.00000000E+00  0.00000000E+00  0.00000000E+00
  0.00000000E+00  0.00000000E+00  0.00000000E+00
  0.00000000E+00  0.00000000E+00  0.00000000E+00
  0.00000000E+00  0.00000000E+00  0.00000000E+00
  0.00000000E+00  0.00000000E+00  0.00000000E+00
  0.00000000E+00  0.00000000E+00  0.00000000E+00
  0.00000000E+00  0.00000000E+00  0.00000000E+00
  0.00000000E+00  0.00000000E+00  0.00000000E+00
  0.00000000E+00  0.00000000E+00  0.00000000E+00
  0.00000000E+00  0.00000000E+00  0.00000000E+00
  0.00000000E+00  0.00000000E+00  0.00000000E+00
  0.00000000E+00  0.00000000E+00  0.00000000E+00
  0.00000000E+00  0.00000000E+00  0.00000000E+00
  0.00000000E+00  0.00000000E+00  0.00000000E+00
  0.00000000E+00  0.00000000E+00  0.00000000E+00
  0.00000000E+00  0.00000000E+00  0.00000000E+00
  0.00000000E+00  0.00000000E+00  0.00000000E+00
  0.00000000E+00  0.00000000E+00  0.00000000E+00
  0.00000000E+00  0.00000000E+00  0.00000000E+00
  0.00000000E+00  0.00000000E+00  0.00000000E+00
  0.00000000E+00  0.00000000E+00  0.00000000E+00
  0.00000000E+00  0.00000000E+00  0.00000000E+00
  0.00000000E+00  0.00000000E+00  0.00000000E+00
  0.00000000E+00  0.00000000E+00  0.00000000E+00
  0.00000000E+00  0.00000000E+00  0.00000000E+00
  0.00000000E+00  0.00000000E+00  0.00000000E+00
  0.00000000E+00  0.00000000E+00  0.00000000E+00
  0.00000000E+00  0.00000000E+00  0.00000000E+00
  0.00000000E+00  0.00000000E+00  0.00000000E+00
  0.00000000E+00  0.00000000E+00  0.00000000E+00
  0.00000000E+00  0.00000000E+00  0.00000000E+00
  0.00000000E+00  0.00000000E+00  0.00000000E+00
  0.00000000E+00  0.00000000E+00  0.00000000E+00
  0.00000000E+00  0.00000000E+00  0.00000000E+00
  0.00000000E+00  0.00000000E+00  0.00000000E+00
  0.00000000E+00  0.00000000E+00  0.00000000E+00
  0.00000000E+00  0.00000000E+00  0.00000000E+00
  0.00000000E+00  0.00000000E+00  0.00000000E+00
  0.00000000E+00  0.00000000E+00  0.00000000E+00
  0.00000000E+00  0.00000000E+00  0.00000000E+00
  0.00000000E+00  0.00000000E+00  0.00000000E+00
  0.00000000E+00  0.00000000E+00  0.00000000E+00
  0.00000000E+00  0.00000000E+00  0.00000000E+00
  0.00000000E+00  0.00000000E+00  0.00000000E+00
  0.00000000E+00  0.00000000E+00  0.00000000E+00
  0.00000000E+00  0.00000000E+00  0.00000000E+00
  0.00000000E+00  0.00000000E+00  0.00000000E+00
  0.00000000E+00  0.00000000E+00  0.00000000E+00
  0.00000000E+00  0.00000000E+00  0.00000000E+00
  0.00000000E+00  0.00000000E+00  0.00000000E+00
  0.00000000E+00  0.00000000E+00  0.00000000E+00
  0.00000000E+00  0.00000000E+00  0.00000000E+00
  0.00000000E+00  0.00000000E+00  0.00000000E+00
  0.00000000E+00  0.00000000E+00  0.00000000E+00
  0.00000000E+00  0.00000000E+00  0.00000000E+00
  0.00000000E+00  0.00000000E+00  0.00000000E+00
  0.00000000E+00  0.00000000E+00  0.00000000E+00
  0.00000000E+00  0.00000000E+00  0.00000000E+00
  0.00000000E+00  0.00000000E+00  0.00000000E+00
  0.00000000E+00  0.00000000E+00  0.00000000E+00
  0.00000000E+00  0.00000000E+00  0.00000000E+00
  0.00000000E+00  0.00000000E+00  0.00000000E+00
  0.00000000E+00  0.00000000E+00  0.00000000E+00
  0.00000000E+00  0.00000000E+00  0.00000000E+00
  0.00000000E+00  0.00000000E+00  0.00000000E+00
  0.00000000E+00  0.00000000E+00  0.00000000E+00
  0.00000000E+00  0.00000000E+00  0.00000000E+00
  0.00000000E+00  0.00000000E+00  0.00000000E+00
  0.00000000E+00  0.00000000E+00  0.00000000E+00
  0.00000000E+00  0.00000000E+00  0.00000000E+00
  0.00000000E+00  0.00000000E+00  0.00000000E+00
  0.00000000E+00  0.00000000E+00  0.00000000E+00
  0.00000000E+00  0.00000000E+00  0.00000000E+00
  0.00000000E+00  0.00000000E+00  0.00000000E+00
  0.00000000E+00  0.00000000E+00  0.00000000E+00
  0.00000000E+00  0.00000000E+00  0.00000000E+00
  0.00000000E+00  0.00000000E+00  0.00000000E+00
  0.00000000E+00  0.00000000E+00  0.00000000E+00
  0.00000000E+00  0.00000000E+00  0.00000000E+00
  0.00000000E+00  0.00000000E+00  0.00000000E+00
  0.00000000E+00  0.00000000E+00  0.00000000E+00
  0.00000000E+00  0.00000000E+00  0.00000000E+00
  0.00000000E+00  0.00000000E+00  0.00000000E+00
  0.00000000E+00  0.00000000E+00  0.00000000E+00
  0.00000000E+00  0.00000000E+00  0.00000000E+00
  0.00000000E+00  0.00000000E+00  0.00000000E+00
  0.00000000E+00  0.00000000E+00  0.00000000E+00
  0.00000000E+00  0.00000000E+00  0.00000000E+00
  0.00000000E+00  0.00000000E+00  0.00000000E+00
  0.00000000E+00  0.00000000E+00  0.00000000E+00
  0.00000000E+00  0.00000000E+00  0.00000000E+00
  0.00000000E+00  0.00000000E+00  0.00000000E+00
  0.00000000E+00  0.00000000E+00  0.00000000E+00
  0.00000000E+00  0.00000000E+00  0.00000000E+00
  0.00000000E+00  0.00000000E+00  0.00000000E+00
  0.00000000E+00  0.00000000E+00  0.00000000E+00
  0.00000000E+00  0.00000000E+00  0.00000000E+00
  0.00000000E+00  0.00000000E+00  0.00000000E+00
  0.00000000E+00  0.00000000E+00  0.00000000E+00
  0.00000000E+00  0.00000000E+00  0.00000000E+00
  0.00000000E+00  0.00000000E+00  0.00000000E+00
  0.00000000E+00  0.00000000E+00  0.00000000E+00
  0.00000000E+00  0.00000000E+00  0.00000000E+00
  0.00000000E+00  0.00000000E+00  0.00000000E+00
  0.00000000E+00  0.00000000E+00  0.00000000E+00
  0.00000000E+00  0.00000000E+00  0.00000000E+00
  0.00000000E+00  0.00000000E+00  0.00000000E+00
  0.00000000E+00  0.00000000E+00  0.00000000E+00
  0.00000000E+00  0.00000000E+00  0.00000000E+00
  0.00000000E+00  0.00000000E+00  0.00000000E+00
  0.00000000E+00  0.00000000E+00  0.00000000E+00
  0.00000000E+00  0.00000000E+00  0.00000000E+00
  0.00000000E+00  0.00000000E+00  0.00000000E+00
  0.00000000E+00  0.00000000E+00  0.00000000E+00
  0.00000000E+00  0.00000000E+00  0.00000000E+00
  0.00000000E+00  0.00000000E+00  0.00000000E+00
  0.00000000E+00  0.00000000E+00  0.00000000E+00
  0.00000000E+00  0.00000000E+00  0.00000000E+00
  0.00000000E+00  0.00000000E+00  0.00000000E+00
  0.00000000E+00  0.00000000E+00  0.00000000E+00
  0.00000000E+00  0.00000000E+00  0.00000000E+00
  0.00000000E+00  0.00000000E+00  0.00000000E+00
  0.00000000E+00  0.00000000E+00  0.00000000E+00
  0.00000000E+00  0.00000000E+00  0.00000000E+00
  0.00000000E+00  0.00000000E+00  0.00000000E+00
  0.00000000E+00  0.00000000E+00  0.00000000E+00
  0.00000000E+00  0.00000000E+00  0.00000000E+00
  0.00000000E+00  0.00000000E+00  0.00000000E+00
  0.00000000E+00  0.00000000E+00  0.00000000E+00
  0.00000000E+00  0.00000000E+00  0.00000000E+00
  0.00000000E+00  0.00000000E+00  0.00000000E+00
  0.00000000E+00  0.00000000E+00  0.00000000E+00
  0.00000000E+00  0.00000000E+00  0.00000000E+00
  0.00000000E+00  0.00000000E+00  0.00000000E+00
  0.00000000E+00  0.00000000E+00  0.00000000E+00
  0.00000000E+00  0.00000000E+00  0.00000000E+00
  0.00000000E+00  0.00000000E+00  0.00000000E+00
  0.00000000E+00  0.00000000E+00  0.00000000E+00
  0.00000000E+00  0.00000000E+00  0.00000000E+00
  0.00000000E+00  0.00000000E+00  0.00000000E+00
  0.00000000E+00  0.00000000E+00  0.00000000E+00
  0.00000000E+00  0.00000000E+00  0.00000000E+00
  0.00000000E+00  0.00000000E+00  0.00000000E+00
  0.00000000E+00  0.00000000E+00  0.00000000E+00
  0.00000000E+00  0.00000000E+00  0.00000000E+00
  0.00000000E+00  0.00000000E+00  0.00000000E+00
  0.00000000E+00  0.00000000E+00  0.00000000E+00
  0.00000000E+00  0.00000000E+00  0.00000000E+00
  0.00000000E+00  0.00000000E+00  0.00000000E+00
  0.00000000E+00  0.00000000E+00  0.00000000E+00
  0.00000000E+00  0.00000000E+00  0.00000000E+00
  0.00000000E+00  0.00000000E+00  0.00000000E+00
  0.00000000E+00  0.00000000E+00  0.00000000E+00
  0.00000000E+00  0.00000000E+00  0.00000000E+00
  0.00000000E+00  0.00000000E+00  0.00000000E+00
  0.00000000E+00  0.00000000E+00  0.00000000E+00
  0.00000000E+00  0.00000000E+00  0.00000000E+00
  0.00000000E+00  0.00000000E+00  0.00000000E+00
  0.00000000E+00  0.00000000E+00  0.00000000E+00
  0.00000000E+00  0.00000000E+00  0.00000000E+00
  0.00000000E+00  0.00000000E+00  0.00000000E+00
  0.00000000E+00  0.00000000E+00  0.00000000E+00
  0.00000000E+00  0.00000000E+00  0.00000000E+00