 C  N  H Fe                             
   1.00000000000000     
    11.1331068073967057  -19.2836585609784734    0.0026687598466342
    11.1336956300341008   19.2839930156626167    0.0440463216474655
     0.0309605715878446    0.0163110456258175   25.3807640012802658
   C    N    H    Fe
   194    12    20     1
Direct
  0.9999733630131165  0.9999562301935290  0.0620645866350609
  0.0370415762185333  0.0740481364920866  0.0618900786674592
  0.9999666087108703  0.1110726102818823  0.0616984410909336
  0.0370336098349598  0.1851821024507098  0.0610015924234421
  0.9999846119248976  0.2222083720313099  0.0605044473608969
  0.0370318037870787  0.2962962234921715  0.0593734408987478
  0.9999826724404358  0.3333142756856810  0.0590216671726942
  0.0370494452534906  0.4073910435090385  0.0580563402631165
  0.9999646585148765  0.4444007628398554  0.0583511752677715
  0.0370216826744236  0.5184820322493937  0.0582592538228439
  0.9999657822844672  0.5555004908144543  0.0587787044543695
  0.0370035964397164  0.6295746749515126  0.0592865613571596
  0.9999499767312332  0.6666050334096809  0.0597343160105181
  0.0369805998998424  0.7406707721015291  0.0603805560502641
  0.9999282364822716  0.7777058102442900  0.0608090497421639
  0.0369875874101885  0.8518044881681535  0.0613264626606631
  0.9999532813115332  0.8888268232028802  0.0616897533765276
  0.0370256685624219  0.9629351829666802  0.0619131923460064
  0.1111223781832070  0.0000164098623615  0.0616539667483483
  0.1482111324555196  0.0741190341531756  0.0612904681206195
  0.1111676610400346  0.1111350898333048  0.0614352328427297
  0.1482095251262232  0.1852204641151494  0.0606586602038474
  0.1111584220441897  0.2222438552260811  0.0604194964253406
  0.1481732018259296  0.2963117854463898  0.0591333389720092
  0.1111254139828264  0.3333502840930559  0.0584127902690951
  0.1481430743639399  0.4073908993503210  0.0567346355637633
  0.1111245273157706  0.4444066426513086  0.0567540933434324
  0.1481754108015195  0.5184683697597852  0.0562210497731515
  0.1111351836327653  0.5554810617326332  0.0575293170880028
  0.1481341050189522  0.6295428827840339  0.0582265246564781
  0.1110839274720953  0.6665829091992146  0.0592518027643758
  0.1481065487252789  0.7406772057028848  0.0598924428473472
  0.1110787418998026  0.7777151103188724  0.0604616866023105
  0.1481201799419462  0.8518085505716939  0.0608983565306075
  0.1110949334351786  0.8888663602203346  0.0612979482159709
  0.1481446336485181  0.9629516162756123  0.0614355018767602
  0.2222420388214735  0.0000367898497282  0.0610880165112034
  0.2592756588214302  0.0741381516611843  0.0606173136116731
  0.2222836768020602  0.1111834517567660  0.0605635532064860
  0.2592897518273800  0.1852193734055612  0.0599712847800730
  0.2222572687664020  0.2222518280906997  0.0599138864693935
  0.2592273345333934  0.2962935907194686  0.0590753819412911
  0.2222423812482742  0.3333425037043196  0.0584453483301323
  0.2592160979322275  0.4073837199885247  0.0570222531632617
  0.2222120548083215  0.4444070162494960  0.0560184619528267
  0.2592341355103882  0.5184513627846612  0.0553796762593159
  0.2222120938613722  0.5554593064833079  0.0555183356546285
  0.2592571617672388  0.6295336948356934  0.0564143655341620
  0.2222378224349061  0.6665598075613549  0.0578478235592714
  0.2592308871649094  0.7406430805155823  0.0590317469184942
  0.2221990620553698  0.7777112558227487  0.0598722122496648
  0.2592238270880263  0.8517878423564508  0.0604199190537245
  0.2221910560671800  0.8888489431705798  0.0608246917543556
  0.2592352400728486  0.9629605588195979  0.0609426218145865
  0.3333227040186156  0.0000014417371320  0.0606831756598153
  0.3703281941493745  0.0740945466034390  0.0603086219711048
  0.3333256353908255  0.1111694677289552  0.0601106637556423
  0.3703320331088735  0.1852309045711974  0.0594430071287818
  0.3333183345659241  0.2222467297979569  0.0593883421437402
  0.3703553465296503  0.2963097929170944  0.0588950124628844
  0.3333068631122915  0.3333340385067342  0.0587822348378042
  0.3702718951017195  0.4073526258968098  0.0582837168030338
  0.3332720868592905  0.4444072426547361  0.0573041867579207
  0.3703362663524635  0.5184824339694925  0.0568325837131072
  0.3332812287857503  0.5554737954963659  0.0559930254581800
  0.3703620729155748  0.6295232561287790  0.0566296877435807
  0.3333188073240478  0.6665480779152645  0.0568654794359441
  0.3703378333026623  0.7406010267533466  0.0583766171343682
  0.3333185406253367  0.7776774564186828  0.0592036959888707
  0.3703433726391291  0.8517895015157956  0.0600530348022566
  0.3333146360307726  0.8888316081200482  0.0604077141156375
  0.3703402371658688  0.9629317558019231  0.0605612273247084
  0.4444002992028412  0.9999469430665112  0.0603982224898063
  0.4814190269214440  0.0740522151225704  0.0600186284995863
  0.4444167549423892  0.1111206837254725  0.0598274986827551
  0.4814381247985827  0.1852251042153416  0.0588530706647163
  0.4444083887564708  0.2222754748455906  0.0587398391698509
  0.4814686330790389  0.2963263367706834  0.0578177354551971
  0.4444077587686651  0.3333221438096315  0.0581895215776733
  0.4814844526533343  0.4073551109180889  0.0580000986939003
  0.4444074864964289  0.4443774642947002  0.0584380959913618
  0.4814812699321167  0.5185032292245990  0.0582336849649308
  0.4443876462690482  0.5555122447419676  0.0576409791046509
  0.4814572044461596  0.6295246442454420  0.0577514174295509
  0.4443857650813647  0.6665107343058677  0.0577151115138619
  0.4814479831844818  0.7405874119270778  0.0588577419563214
  0.4444311682771782  0.7776334203404356  0.0592207171392891
  0.4814441660958007  0.8517401510721515  0.0601370122298453
  0.4444272334604199  0.8888116255503320  0.0602833534900563
  0.4814354279128336  0.9628961792339922  0.0604590373376166
  0.5555122868218010  0.9999242370258463  0.0605292006996641
  0.5925370268433555  0.0740252989673967  0.0601691179384610
  0.5555044617219123  0.1110841238465892  0.0596861272239802
  0.5925120593619164  0.1851800994757931  0.0586797620848693
  0.5554993230409261  0.2222574648854647  0.0578902812241235
  0.5925354544790468  0.2963382874438454  0.0565077957902631
  0.5555083632674712  0.3333466045866418  0.0566035344087519
  0.5925867259188153  0.4074096849614477  0.0561479790156041
  0.5555571975374819  0.4444123918022459  0.0570975712375660
  0.5925875513949364  0.5184610061376090  0.0573954074331389
  0.5555867584521333  0.5555068242427219  0.0580408511280461
  0.5925760570843910  0.6295467697813847  0.0583478462990206
  0.5555249615158296  0.6665402061255411  0.0584023274719104
  0.5925647171812124  0.7406030026504440  0.0590661848965070
  0.5555402534327845  0.7776221739376965  0.0594448267950080
  0.5925204566911825  0.8516678536461040  0.0603097779403071
  0.5555079235336844  0.8887501512650307  0.0605342253157712
  0.5925230191288774  0.9628607890512223  0.0607656805862134
  0.6666104692370733  0.9999042953007119  0.0609560498459080
  0.7036384475685259  0.0739983275475967  0.0607002639638183
  0.6666082019419193  0.1110638521751793  0.0601536913552434
  0.7036393339154603  0.1851694401919209  0.0594799454004048
  0.6666209369078198  0.2222367448983572  0.0585113906615657
  0.7036137159666840  0.2963285459170159  0.0573201640064970
  0.6665885093002466  0.3333676983948396  0.0559958361279755
  0.7036289993553018  0.4074250235074804  0.0553806540142330
  0.6666187154866401  0.4444385104890796  0.0555315578189030
  0.7036479029328595  0.5184997814314461  0.0563076829146101
  0.6666652133137941  0.5555197719897829  0.0571946315777550
  0.7036488540110427  0.6295584262334600  0.0583497089773505
  0.6666452340851515  0.6665878185567106  0.0587753755031722
  0.7036146364767111  0.7406046534910724  0.0596408780011685
  0.6665673976366038  0.7776128788352382  0.0597470226361388
  0.7035742275792582  0.8516618933405634  0.0606042723620858
  0.6665900568144195  0.8887122738179445  0.0607745073606617
  0.7036134073229776  0.9628192287326729  0.0611819165618646
  0.7776897851077580  0.9998887527927046  0.0614762048071289
  0.8147387575443059  0.0739966066396933  0.0612809341444500
  0.7777254101172207  0.1110517911325813  0.0607851575563457
  0.8147605060772068  0.1851496931782400  0.0602679664561797
  0.7777321249120724  0.2222046229573859  0.0595689316384201
  0.8147394585104095  0.2962850011423825  0.0589116364248349
  0.7776911339628176  0.3333348278488837  0.0578222619505601
  0.8147067555706421  0.4074199504446112  0.0573053421630479
  0.7776744077250729  0.4444342415330856  0.0561515681336971
  0.8147219862164518  0.5184893556473501  0.0569235484045569
  0.7777035120834360  0.5555215133563480  0.0570142486217223
  0.8147000608649341  0.6295469733661146  0.0585161340658568
  0.7776757053886315  0.6665833119372739  0.0589904563949136
  0.8146832996876020  0.7406324716001181  0.0601503211571517
  0.7776562723827090  0.7776282203398979  0.0604157984730803
  0.8146811078672419  0.8516931762817074  0.0612855119500182
  0.7776478330467064  0.8887286019301242  0.0612883099628750
  0.8147027897757938  0.9628124426003253  0.0616899384408194
  0.8888125368604231  0.9999047718864875  0.0619397027356365
  0.9258698888821355  0.0740127428593203  0.0617659619835167
  0.8888442276321944  0.1110610718644446  0.0613458407738347
  0.9258838334673271  0.1851450346391479  0.0607826776919442
  0.8888378905822115  0.2221878638566026  0.0602345948384546
  0.9258784501958699  0.2962763532971803  0.0595362114635915
  0.8888342376374682  0.3333039999019105  0.0590458920931078
  0.9258739556891368  0.4073832863063325  0.0586291791944882
  0.8888128686876473  0.4444131580808559  0.0581679375814162
  0.9258596807067297  0.5184771301145478  0.0584324650313504
  0.8887756406912746  0.5554872166864889  0.0582227919705312
  0.9258436066593335  0.6295752756479962  0.0592056192509272
  0.8888042103521666  0.6665871901601185  0.0594697363221015
  0.9258438366696515  0.7406647592446277  0.0604688544064060
  0.8887701436091878  0.7776770239546367  0.0608025402288901
  0.9258395573150493  0.8517537940853918  0.0615384532054861
  0.8887737580450654  0.8887752483806111  0.0617566626172999
  0.9258474060834263  0.9628817508652888  0.0620379819076012
  0.2672548777290653  0.1336494991598547  0.1957013535581107
  0.3370823522886489  0.1866697255786412  0.1939609254198410
  0.3498817922212970  0.2550085824717964  0.1918042649067921
  0.2950098802342912  0.2698910740569827  0.1911309260444346
  0.2244790938753271  0.2164987510346941  0.1933503184050500
  0.2122353289641079  0.1476595527012877  0.1955767023395650
  0.3261937847323481  0.3444060429629434  0.1881936074098172
  0.4139025504423648  0.3219058389330576  0.1891955721495080
  0.3178055590178306  0.4448469751692655  0.1858850779976373
  0.3935609518059642  0.5592449044917429  0.1866453837448822
  0.2767638564813200  0.4794195901120406  0.1860160914055607
  0.3248137040377092  0.5513955539987179  0.1869109261505238
  0.3023292716570745  0.6007408412053847  0.1864043836315238
  0.2294979247118560  0.5737136679244388  0.1847548315049131
  0.1825912316950924  0.5020500149015324  0.1836960942304620
  0.2051520066784817  0.4532392844567471  0.1842695029811539
  0.5346390394563008  0.3897555680171052  0.1880948360710216
  0.6103115442404066  0.5040142628232025  0.1876242161679180
  0.6257314300895178  0.3481223569183446  0.1869068467008018
  0.6985636984364783  0.3750997189134944  0.1843562514005187
  0.7454875825729689  0.4467782817364996  0.1835335608119561
  0.7230438697295913  0.4956642113871408  0.1851261824680727
  0.6514248819918269  0.4695047007161817  0.1870576804009873
  0.6033445967930599  0.3975393810751880  0.1876496561670458
  0.6018292609258741  0.6044308729906523  0.1886817566200853
  0.5143160993664857  0.6272224951061177  0.1877288266052187
  0.6331019579345263  0.6789250428448610  0.1908109746198201
  0.7036505950187247  0.7318257981479872  0.1942875345349628
  0.7163782055251193  0.8007687404836590  0.1968163112279920
  0.6616397032262238  0.8152169479364481  0.1955250092299836
  0.5917772654767476  0.7626627909580418  0.1919962519248653
  0.5784606248548267  0.6941229893536018  0.1898791672763849
  0.3983835559293836  0.3752722433534716  0.1873491246251465
  0.2888143124422868  0.3761443847631220  0.1868398056669912
  0.3881589091338241  0.4937911940661234  0.1856454978074135
  0.4766366467959149  0.3280871058079274  0.1887935216576098
  0.5400032553486843  0.4551639230762456  0.1879402902990756
  0.6392282711780634  0.5727073664067107  0.1882141331702888
  0.5296803944479685  0.5737316808307185  0.1871997064552761
  0.4515062177656062  0.6209326146732602  0.1873148816741738
  0.3488503760868553  0.6709159682810965  0.1884765074537593
  0.7559175621069621  0.7157951616281185  0.1932760846587561
  0.5791238951006822  0.2781703108618402  0.1894513246450569
  0.1717846626860653  0.2318616694419787  0.1948622728019487
  0.2547835723792979  0.0795298436381225  0.1970356728177814
  0.3793420386643156  0.1752660305855441  0.1938998706362401
  0.1587218018365974  0.1047244606927771  0.1970170902091253
  0.2098466522107809  0.6099287216766820  0.1834696707312731
  0.1271344134600211  0.4840688252917509  0.1814931817786175
  0.1687711720605941  0.3976231905591706  0.1823565141502030
  0.7181393220342118  0.3389072332679171  0.1818763234858202
  0.8008872685416190  0.4647308057387227  0.1804919388359061
  0.7595029098840933  0.5513129517897439  0.1836036777611306
  0.7699527116952372  0.8433903963692969  0.1992377427823109
  0.6744475082767766  0.8694192949911129  0.1970716410219263
  0.5499100761616539  0.7746026879887132  0.1908817133836784
  0.3326273371813225  0.7036543651458551  0.1756386102655611
  0.3995198334406003  0.6855151728298342  0.1817931591447124
  0.7408090426588552  0.6645295199463624  0.1972331630152441
  0.8033379484160319  0.7511830407372240  0.2070770864157744
  0.5950864297825763  0.2443924261516361  0.1792820200528027
  0.5280963896002772  0.2631529932553861  0.1845087459808380
  0.1233358788495066  0.1942281290703292  0.1847745987495549
  0.1853930379425326  0.2819124833014875  0.1864654288433635
  0.4640134978839646  0.4745195433282082  0.1856525157856477
 
  0.00000000E+00  0.00000000E+00  0.00000000E+00
  0.00000000E+00  0.00000000E+00  0.00000000E+00
  0.00000000E+00  0.00000000E+00  0.00000000E+00
  0.00000000E+00  0.00000000E+00  0.00000000E+00
  0.00000000E+00  0.00000000E+00  0.00000000E+00
  0.00000000E+00  0.00000000E+00  0.00000000E+00
  0.00000000E+00  0.00000000E+00  0.00000000E+00
  0.00000000E+00  0.00000000E+00  0.00000000E+00
  0.00000000E+00  0.00000000E+00  0.00000000E+00
  0.00000000E+00  0.00000000E+00  0.00000000E+00
  0.00000000E+00  0.00000000E+00  0.00000000E+00
  0.00000000E+00  0.00000000E+00  0.00000000E+00
  0.00000000E+00  0.00000000E+00  0.00000000E+00
  0.00000000E+00  0.00000000E+00  0.00000000E+00
  0.00000000E+00  0.00000000E+00  0.00000000E+00
  0.00000000E+00  0.00000000E+00  0.00000000E+00
  0.00000000E+00  0.00000000E+00  0.00000000E+00
  0.00000000E+00  0.00000000E+00  0.00000000E+00
  0.00000000E+00  0.00000000E+00  0.00000000E+00
  0.00000000E+00  0.00000000E+00  0.00000000E+00
  0.00000000E+00  0.00000000E+00  0.00000000E+00
  0.00000000E+00  0.00000000E+00  0.00000000E+00
  0.00000000E+00  0.00000000E+00  0.00000000E+00
  0.00000000E+00  0.00000000E+00  0.00000000E+00
  0.00000000E+00  0.00000000E+00  0.00000000E+00
  0.00000000E+00  0.00000000E+00  0.00000000E+00
  0.00000000E+00  0.00000000E+00  0.00000000E+00
  0.00000000E+00  0.00000000E+00  0.00000000E+00
  0.00000000E+00  0.00000000E+00  0.00000000E+00
  0.00000000E+00  0.00000000E+00  0.00000000E+00
  0.00000000E+00  0.00000000E+00  0.00000000E+00
  0.00000000E+00  0.00000000E+00  0.00000000E+00
  0.00000000E+00  0.00000000E+00  0.00000000E+00
  0.00000000E+00  0.00000000E+00  0.00000000E+00
  0.00000000E+00  0.00000000E+00  0.00000000E+00
  0.00000000E+00  0.00000000E+00  0.00000000E+00
  0.00000000E+00  0.00000000E+00  0.00000000E+00
  0.00000000E+00  0.00000000E+00  0.00000000E+00
  0.00000000E+00  0.00000000E+00  0.00000000E+00
  0.00000000E+00  0.00000000E+00  0.00000000E+00
  0.00000000E+00  0.00000000E+00  0.00000000E+00
  0.00000000E+00  0.00000000E+00  0.00000000E+00
  0.00000000E+00  0.00000000E+00  0.00000000E+00
  0.00000000E+00  0.00000000E+00  0.00000000E+00
  0.00000000E+00  0.00000000E+00  0.00000000E+00
  0.00000000E+00  0.00000000E+00  0.00000000E+00
  0.00000000E+00  0.00000000E+00  0.00000000E+00
  0.00000000E+00  0.00000000E+00  0.00000000E+00
  0.00000000E+00  0.00000000E+00  0.00000000E+00
  0.00000000E+00  0.00000000E+00  0.00000000E+00
  0.00000000E+00  0.00000000E+00  0.00000000E+00
  0.00000000E+00  0.00000000E+00  0.00000000E+00
  0.00000000E+00  0.00000000E+00  0.00000000E+00
  0.00000000E+00  0.00000000E+00  0.00000000E+00
  0.00000000E+00  0.00000000E+00  0.00000000E+00
  0.00000000E+00  0.00000000E+00  0.00000000E+00
  0.00000000E+00  0.00000000E+00  0.00000000E+00
  0.00000000E+00  0.00000000E+00  0.00000000E+00
  0.00000000E+00  0.00000000E+00  0.00000000E+00
  0.00000000E+00  0.00000000E+00  0.00000000E+00
  0.00000000E+00  0.00000000E+00  0.00000000E+00
  0.00000000E+00  0.00000000E+00  0.00000000E+00
  0.00000000E+00  0.00000000E+00  0.00000000E+00
  0.00000000E+00  0.00000000E+00  0.00000000E+00
  0.00000000E+00  0.00000000E+00  0.00000000E+00
  0.00000000E+00  0.00000000E+00  0.00000000E+00
  0.00000000E+00  0.00000000E+00  0.00000000E+00
  0.00000000E+00  0.00000000E+00  0.00000000E+00
  0.00000000E+00  0.00000000E+00  0.00000000E+00
  0.00000000E+00  0.00000000E+00  0.00000000E+00
  0.00000000E+00  0.00000000E+00  0.00000000E+00
  0.00000000E+00  0.00000000E+00  0.00000000E+00
  0.00000000E+00  0.00000000E+00  0.00000000E+00
  0.00000000E+00  0.00000000E+00  0.00000000E+00
  0.00000000E+00  0.00000000E+00  0.00000000E+00
  0.00000000E+00  0.00000000E+00  0.00000000E+00
  0.00000000E+00  0.00000000E+00  0.00000000E+00
  0.00000000E+00  0.00000000E+00  0.00000000E+00
  0.00000000E+00  0.00000000E+00  0.00000000E+00
  0.00000000E+00  0.00000000E+00  0.00000000E+00
  0.00000000E+00  0.00000000E+00  0.00000000E+00
  0.00000000E+00  0.00000000E+00  0.00000000E+00
  0.00000000E+00  0.00000000E+00  0.00000000E+00
  0.00000000E+00  0.00000000E+00  0.00000000E+00
  0.00000000E+00  0.00000000E+00  0.00000000E+00
  0.00000000E+00  0.00000000E+00  0.00000000E+00
  0.00000000E+00  0.00000000E+00  0.00000000E+00
  0.00000000E+00  0.00000000E+00  0.00000000E+00
  0.00000000E+00  0.00000000E+00  0.00000000E+00
  0.00000000E+00  0.00000000E+00  0.00000000E+00
  0.00000000E+00  0.00000000E+00  0.00000000E+00
  0.00000000E+00  0.00000000E+00  0.00000000E+00
  0.00000000E+00  0.00000000E+00  0.00000000E+00
  0.00000000E+00  0.00000000E+00  0.00000000E+00
  0.00000000E+00  0.00000000E+00  0.00000000E+00
  0.00000000E+00  0.00000000E+00  0.00000000E+00
  0.00000000E+00  0.00000000E+00  0.00000000E+00
  0.00000000E+00  0.00000000E+00  0.00000000E+00
  0.00000000E+00  0.00000000E+00  0.00000000E+00
  0.00000000E+00  0.00000000E+00  0.00000000E+00
  0.00000000E+00  0.00000000E+00  0.00000000E+00
  0.00000000E+00  0.00000000E+00  0.00000000E+00
  0.00000000E+00  0.00000000E+00  0.00000000E+00
  0.00000000E+00  0.00000000E+00  0.00000000E+00
  0.00000000E+00  0.00000000E+00  0.00000000E+00
  0.00000000E+00  0.00000000E+00  0.00000000E+00
  0.00000000E+00  0.00000000E+00  0.00000000E+00
  0.00000000E+00  0.00000000E+00  0.00000000E+00
  0.00000000E+00  0.00000000E+00  0.00000000E+00
  0.00000000E+00  0.00000000E+00  0.00000000E+00
  0.00000000E+00  0.00000000E+00  0.00000000E+00
  0.00000000E+00  0.00000000E+00  0.00000000E+00
  0.00000000E+00  0.00000000E+00  0.00000000E+00
  0.00000000E+00  0.00000000E+00  0.00000000E+00
  0.00000000E+00  0.00000000E+00  0.00000000E+00
  0.00000000E+00  0.00000000E+00  0.00000000E+00
  0.00000000E+00  0.00000000E+00  0.00000000E+00
  0.00000000E+00  0.00000000E+00  0.00000000E+00
  0.00000000E+00  0.00000000E+00  0.00000000E+00
  0.00000000E+00  0.00000000E+00  0.00000000E+00
  0.00000000E+00  0.00000000E+00  0.00000000E+00
  0.00000000E+00  0.00000000E+00  0.00000000E+00
  0.00000000E+00  0.00000000E+00  0.00000000E+00
  0.00000000E+00  0.00000000E+00  0.00000000E+00
  0.00000000E+00  0.00000000E+00  0.00000000E+00
  0.00000000E+00  0.00000000E+00  0.00000000E+00
  0.00000000E+00  0.00000000E+00  0.00000000E+00
  0.00000000E+00  0.00000000E+00  0.00000000E+00
  0.00000000E+00  0.00000000E+00  0.00000000E+00
  0.00000000E+00  0.00000000E+00  0.00000000E+00
  0.00000000E+00  0.00000000E+00  0.00000000E+00
  0.00000000E+00  0.00000000E+00  0.00000000E+00
  0.00000000E+00  0.00000000E+00  0.00000000E+00
  0.00000000E+00  0.00000000E+00  0.00000000E+00
  0.00000000E+00  0.00000000E+00  0.00000000E+00
  0.00000000E+00  0.00000000E+00  0.00000000E+00
  0.00000000E+00  0.00000000E+00  0.00000000E+00
  0.00000000E+00  0.00000000E+00  0.00000000E+00
  0.00000000E+00  0.00000000E+00  0.00000000E+00
  0.00000000E+00  0.00000000E+00  0.00000000E+00
  0.00000000E+00  0.00000000E+00  0.00000000E+00
  0.00000000E+00  0.00000000E+00  0.00000000E+00
  0.00000000E+00  0.00000000E+00  0.00000000E+00
  0.00000000E+00  0.00000000E+00  0.00000000E+00
  0.00000000E+00  0.00000000E+00  0.00000000E+00
  0.00000000E+00  0.00000000E+00  0.00000000E+00
  0.00000000E+00  0.00000000E+00  0.00000000E+00
  0.00000000E+00  0.00000000E+00  0.00000000E+00
  0.00000000E+00  0.00000000E+00  0.00000000E+00
  0.00000000E+00  0.00000000E+00  0.00000000E+00
  0.00000000E+00  0.00000000E+00  0.00000000E+00
  0.00000000E+00  0.00000000E+00  0.00000000E+00
  0.00000000E+00  0.00000000E+00  0.00000000E+00
  0.00000000E+00  0.00000000E+00  0.00000000E+00
  0.00000000E+00  0.00000000E+00  0.00000000E+00
  0.00000000E+00  0.00000000E+00  0.00000000E+00
  0.00000000E+00  0.00000000E+00  0.00000000E+00
  0.00000000E+00  0.00000000E+00  0.00000000E+00
  0.00000000E+00  0.00000000E+00  0.00000000E+00
  0.00000000E+00  0.00000000E+00  0.00000000E+00
  0.00000000E+00  0.00000000E+00  0.00000000E+00
  0.00000000E+00  0.00000000E+00  0.00000000E+00
  0.00000000E+00  0.00000000E+00  0.00000000E+00
  0.00000000E+00  0.00000000E+00  0.00000000E+00
  0.00000000E+00  0.00000000E+00  0.00000000E+00
  0.00000000E+00  0.00000000E+00  0.00000000E+00
  0.00000000E+00  0.00000000E+00  0.00000000E+00
  0.00000000E+00  0.00000000E+00  0.00000000E+00
  0.00000000E+00  0.00000000E+00  0.00000000E+00
  0.00000000E+00  0.00000000E+00  0.00000000E+00
  0.00000000E+00  0.00000000E+00  0.00000000E+00
  0.00000000E+00  0.00000000E+00  0.00000000E+00
  0.00000000E+00  0.00000000E+00  0.00000000E+00
  0.00000000E+00  0.00000000E+00  0.00000000E+00
  0.00000000E+00  0.00000000E+00  0.00000000E+00
  0.00000000E+00  0.00000000E+00  0.00000000E+00
  0.00000000E+00  0.00000000E+00  0.00000000E+00
  0.00000000E+00  0.00000000E+00  0.00000000E+00
  0.00000000E+00  0.00000000E+00  0.00000000E+00
  0.00000000E+00  0.00000000E+00  0.00000000E+00
  0.00000000E+00  0.00000000E+00  0.00000000E+00
  0.00000000E+00  0.00000000E+00  0.00000000E+00
  0.00000000E+00  0.00000000E+00  0.00000000E+00
  0.00000000E+00  0.00000000E+00  0.00000000E+00
  0.00000000E+00  0.00000000E+00  0.00000000E+00
  0.00000000E+00  0.00000000E+00  0.00000000E+00
  0.00000000E+00  0.00000000E+00  0.00000000E+00
  0.00000000E+00  0.00000000E+00  0.00000000E+00
  0.00000000E+00  0.00000000E+00  0.00000000E+00
  0.00000000E+00  0.00000000E+00  0.00000000E+00
  0.00000000E+00  0.00000000E+00  0.00000000E+00
  0.00000000E+00  0.00000000E+00  0.00000000E+00
  0.00000000E+00  0.00000000E+00  0.00000000E+00
  0.00000000E+00  0.00000000E+00  0.00000000E+00
  0.00000000E+00  0.00000000E+00  0.00000000E+00
  0.00000000E+00  0.00000000E+00  0.00000000E+00
  0.00000000E+00  0.00000000E+00  0.00000000E+00
  0.00000000E+00  0.00000000E+00  0.00000000E+00
  0.00000000E+00  0.00000000E+00  0.00000000E+00
  0.00000000E+00  0.00000000E+00  0.00000000E+00
  0.00000000E+00  0.00000000E+00  0.00000000E+00
  0.00000000E+00  0.00000000E+00  0.00000000E+00
  0.00000000E+00  0.00000000E+00  0.00000000E+00
  0.00000000E+00  0.00000000E+00  0.00000000E+00
  0.00000000E+00  0.00000000E+00  0.00000000E+00
  0.00000000E+00  0.00000000E+00  0.00000000E+00
  0.00000000E+00  0.00000000E+00  0.00000000E+00
  0.00000000E+00  0.00000000E+00  0.00000000E+00
  0.00000000E+00  0.00000000E+00  0.00000000E+00
  0.00000000E+00  0.00000000E+00  0.00000000E+00
  0.00000000E+00  0.00000000E+00  0.00000000E+00
  0.00000000E+00  0.00000000E+00  0.00000000E+00
  0.00000000E+00  0.00000000E+00  0.00000000E+00
  0.00000000E+00  0.00000000E+00  0.00000000E+00
  0.00000000E+00  0.00000000E+00  0.00000000E+00
  0.00000000E+00  0.00000000E+00  0.00000000E+00
  0.00000000E+00  0.00000000E+00  0.00000000E+00
  0.00000000E+00  0.00000000E+00  0.00000000E+00
  0.00000000E+00  0.00000000E+00  0.00000000E+00
  0.00000000E+00  0.00000000E+00  0.00000000E+00
  0.00000000E+00  0.00000000E+00  0.00000000E+00
  0.00000000E+00  0.00000000E+00  0.00000000E+00
  0.00000000E+00  0.00000000E+00  0.00000000E+00
  0.00000000E+00  0.00000000E+00  0.00000000E+00
  0.00000000E+00  0.00000000E+00  0.00000000E+00
  0.00000000E+00  0.00000000E+00  0.00000000E+00
  0.00000000E+00  0.00000000E+00  0.00000000E+00
