 C  N Ti                                
   1.00000000000000     
    12.4750984331959263    0.0000000000000000    0.0000000000000000
    -0.0000000000000004   12.8020813119173003    0.0000000000000000
     0.0000000000000003    0.0000000000000000   19.8713392819153718
   C    N    Ti
    56     2     1
Direct
  0.0519681856289434  0.0473191568322730  0.1590485314591854
  0.1519873282801854  0.1019529761202041  0.1591861566340860
  0.1511310887971455  0.2130728861988513  0.1589273721553244
  0.0513063463722555  0.2689922067623942  0.1587489357799609
  0.2525962557979929  0.0470007996121599  0.1596551521812299
  0.3524387868865769  0.1026870305976467  0.1602669747964479
  0.3512141363126802  0.2143800418911440  0.1601985119138236
  0.2501923405962221  0.2680502327463381  0.1590978549110265
  0.4526613040488470  0.0472281680539740  0.1602700350883344
  0.5511605187833702  0.1054340260183489  0.1606391786202649
  0.5504709268588774  0.2181143218971377  0.1611387429874226
  0.4494174207552047  0.2731708934721819  0.1596717970459838
  0.6510091287893814  0.0486387440217791  0.1606040762306984
  0.7510113896514208  0.1043978275698309  0.1606192726608802
  0.7511822488216932  0.2159769489289490  0.1620399619457419
  0.6513537913955100  0.2744553154067567  0.1634473921609340
  0.8513088755657439  0.0482943835324897  0.1595210818616030
  0.9514814285860546  0.1030283314337738  0.1591692365799132
  0.9514752567150290  0.2142676899059081  0.1593470342509730
  0.8517497937178334  0.2703962120465591  0.1607117594614092
  0.0517431315895414  0.3802193358997134  0.1585451197919409
  0.1505024522101858  0.4358214085088289  0.1584076645502438
  0.1511151820081108  0.5471243538971139  0.1585872901612951
  0.0525409347919502  0.6035008137216603  0.1586273656510596
  0.2491522639710354  0.3791777766725121  0.1584904082732341
  0.3475080078724428  0.4332950661241508  0.1582027830760307
  0.3491729352084322  0.5453744132182496  0.1599208468970561
  0.2505253653531490  0.6018288653465396  0.1595005065275129
  0.7550812089065838  0.4383856423632183  0.1624215566100506
  0.7568247330608201  0.5505391111714522  0.1605926185314157
  0.8537858406405785  0.3818657700704124  0.1603366984648823
  0.9531434748098685  0.4365840444912817  0.1587859760903347
  0.9537835499726319  0.5479438766728598  0.1586444367582326
  0.8552363571555113  0.6046049281859388  0.1593638252403148
  0.0529852707927098  0.7147507728679002  0.1588950761436949
  0.1528525194046738  0.7694753551499980  0.1594747401182844
  0.0523681945076760  0.9364405996383778  0.1590994348907894
  0.2525508053795850  0.7133489637477639  0.1603413038646840
  0.3531600646368326  0.7676262383569855  0.1615169726701312
  0.3533059907535501  0.8793081106465673  0.1606267394176746
  0.2530395320828395  0.9354134995308167  0.1598092539332235
  0.4529718125993051  0.7090841414007788  0.1621023298889178
  0.5537729722484536  0.7656780622387659  0.1613341517600690
  0.5531091941786642  0.8783565549401354  0.1607913703687615
  0.4532795073044415  0.9350814615643168  0.1604916604959988
  0.6549234303433666  0.7108878673771587  0.1612673545418822
  0.7531408650282935  0.7694971675618038  0.1610553440056154
  0.7519212124026518  0.8811221629219987  0.1605043523946604
  0.6516508742106274  0.9365475128526507  0.1605333589842583
  0.8541468079016746  0.7157089023759940  0.1597235958310939
  0.9532176609307674  0.7706459882033406  0.1591077018722494
  0.8517714300281269  0.9367465512422061  0.1595062592950840
  0.1528512256858764  0.8807244168769574  0.1594188032901178
  0.9523909467637972  0.8817986937692357  0.1591451686332240
  0.4493837049508643  0.5984099064948737  0.1608085118762759
  0.6550592651901597  0.3850129443044620  0.1642542904719551
  0.4454461839584143  0.3814823891076281  0.1562597553919464
  0.6589745979596043  0.6025714338594590  0.1595069043637840
  0.5546740307243954  0.4917366998857050  0.1230694691154327
 
  0.00000000E+00  0.00000000E+00  0.00000000E+00
  0.00000000E+00  0.00000000E+00  0.00000000E+00
  0.00000000E+00  0.00000000E+00  0.00000000E+00
  0.00000000E+00  0.00000000E+00  0.00000000E+00
  0.00000000E+00  0.00000000E+00  0.00000000E+00
  0.00000000E+00  0.00000000E+00  0.00000000E+00
  0.00000000E+00  0.00000000E+00  0.00000000E+00
  0.00000000E+00  0.00000000E+00  0.00000000E+00
  0.00000000E+00  0.00000000E+00  0.00000000E+00
  0.00000000E+00  0.00000000E+00  0.00000000E+00
  0.00000000E+00  0.00000000E+00  0.00000000E+00
  0.00000000E+00  0.00000000E+00  0.00000000E+00
  0.00000000E+00  0.00000000E+00  0.00000000E+00
  0.00000000E+00  0.00000000E+00  0.00000000E+00
  0.00000000E+00  0.00000000E+00  0.00000000E+00
  0.00000000E+00  0.00000000E+00  0.00000000E+00
  0.00000000E+00  0.00000000E+00  0.00000000E+00
  0.00000000E+00  0.00000000E+00  0.00000000E+00
  0.00000000E+00  0.00000000E+00  0.00000000E+00
  0.00000000E+00  0.00000000E+00  0.00000000E+00
  0.00000000E+00  0.00000000E+00  0.00000000E+00
  0.00000000E+00  0.00000000E+00  0.00000000E+00
  0.00000000E+00  0.00000000E+00  0.00000000E+00
  0.00000000E+00  0.00000000E+00  0.00000000E+00
  0.00000000E+00  0.00000000E+00  0.00000000E+00
  0.00000000E+00  0.00000000E+00  0.00000000E+00
  0.00000000E+00  0.00000000E+00  0.00000000E+00
  0.00000000E+00  0.00000000E+00  0.00000000E+00
  0.00000000E+00  0.00000000E+00  0.00000000E+00
  0.00000000E+00  0.00000000E+00  0.00000000E+00
  0.00000000E+00  0.00000000E+00  0.00000000E+00
  0.00000000E+00  0.00000000E+00  0.00000000E+00
  0.00000000E+00  0.00000000E+00  0.00000000E+00
  0.00000000E+00  0.00000000E+00  0.00000000E+00
  0.00000000E+00  0.00000000E+00  0.00000000E+00
  0.00000000E+00  0.00000000E+00  0.00000000E+00
  0.00000000E+00  0.00000000E+00  0.00000000E+00
  0.00000000E+00  0.00000000E+00  0.00000000E+00
  0.00000000E+00  0.00000000E+00  0.00000000E+00
  0.00000000E+00  0.00000000E+00  0.00000000E+00
  0.00000000E+00  0.00000000E+00  0.00000000E+00
  0.00000000E+00  0.00000000E+00  0.00000000E+00
  0.00000000E+00  0.00000000E+00  0.00000000E+00
  0.00000000E+00  0.00000000E+00  0.00000000E+00
  0.00000000E+00  0.00000000E+00  0.00000000E+00
  0.00000000E+00  0.00000000E+00  0.00000000E+00
  0.00000000E+00  0.00000000E+00  0.00000000E+00
  0.00000000E+00  0.00000000E+00  0.00000000E+00
  0.00000000E+00  0.00000000E+00  0.00000000E+00
  0.00000000E+00  0.00000000E+00  0.00000000E+00
  0.00000000E+00  0.00000000E+00  0.00000000E+00
  0.00000000E+00  0.00000000E+00  0.00000000E+00
  0.00000000E+00  0.00000000E+00  0.00000000E+00
  0.00000000E+00  0.00000000E+00  0.00000000E+00
  0.00000000E+00  0.00000000E+00  0.00000000E+00
  0.00000000E+00  0.00000000E+00  0.00000000E+00
  0.00000000E+00  0.00000000E+00  0.00000000E+00
  0.00000000E+00  0.00000000E+00  0.00000000E+00
  0.00000000E+00  0.00000000E+00  0.00000000E+00
