 C  N Ni                                
   1.00000000000000     
     8.4219109800347383    0.0000000000000001    0.0000000000000000
    -0.0000000000000001    8.4217924013303165    0.0000000000000000
    -0.0000000000000002    0.0000000000000000   19.8713392818999957
   C    N    Ni
    22     2     1
Direct
  0.5001589145954737  0.0850626665305316  0.1542698164268124
  0.3558310671403321  0.1673522579886530  0.1542549911091258
  0.6469110278618270  0.1680823288867015  0.1542256803205118
  0.7936823106216347  0.9167224605347220  0.1541508971757466
  0.7956567726367164  0.0824579673785967  0.1541524495006947
  0.9175345315483106  0.2042684669252762  0.1541438153291037
  0.8319979931698579  0.3530733750202026  0.1542028711369070
  0.2061672296304089  0.0831923353719845  0.1541762933662100
  0.0831817766082083  0.2062378086854425  0.1541555520791861
  0.1674628999214036  0.3557968590548067  0.1542247153354842
  0.0852065250886584  0.5001611696725181  0.1542233563351157
  0.1680834190971559  0.6469239774492560  0.1542128732112029
  0.3530572738391535  0.8319565550674690  0.1542450352057433
  0.2042409823507411  0.9175328796797267  0.1541714345665485
  0.0824720822780681  0.7956693329404817  0.1541517247874182
  0.6441710913984733  0.8324485958135296  0.1542351995575338
  0.8326113762418695  0.6441804007500783  0.1542016447913627
  0.9166848482655313  0.7937205810896221  0.1541399306152256
  0.4998243308967086  0.9148533280595560  0.1542713245455160
  0.9149955679813251  0.4998048266860863  0.1542150690668296
  0.6634241435173318  0.6632416278846057  0.1542705301870070
  0.3368133214025926  0.3366126817424504  0.1542957607402785
  0.6681590163970925  0.3319055267213829  0.1542422607176453
  0.3319405804691876  0.6681445363101118  0.1542635308060554
  0.5000804780421921  0.4999103709986569  0.1543162529075282
 
  0.00000000E+00  0.00000000E+00  0.00000000E+00
  0.00000000E+00  0.00000000E+00  0.00000000E+00
  0.00000000E+00  0.00000000E+00  0.00000000E+00
  0.00000000E+00  0.00000000E+00  0.00000000E+00
  0.00000000E+00  0.00000000E+00  0.00000000E+00
  0.00000000E+00  0.00000000E+00  0.00000000E+00
  0.00000000E+00  0.00000000E+00  0.00000000E+00
  0.00000000E+00  0.00000000E+00  0.00000000E+00
  0.00000000E+00  0.00000000E+00  0.00000000E+00
  0.00000000E+00  0.00000000E+00  0.00000000E+00
  0.00000000E+00  0.00000000E+00  0.00000000E+00
  0.00000000E+00  0.00000000E+00  0.00000000E+00
  0.00000000E+00  0.00000000E+00  0.00000000E+00
  0.00000000E+00  0.00000000E+00  0.00000000E+00
  0.00000000E+00  0.00000000E+00  0.00000000E+00
  0.00000000E+00  0.00000000E+00  0.00000000E+00
  0.00000000E+00  0.00000000E+00  0.00000000E+00
  0.00000000E+00  0.00000000E+00  0.00000000E+00
  0.00000000E+00  0.00000000E+00  0.00000000E+00
  0.00000000E+00  0.00000000E+00  0.00000000E+00
  0.00000000E+00  0.00000000E+00  0.00000000E+00
  0.00000000E+00  0.00000000E+00  0.00000000E+00
  0.00000000E+00  0.00000000E+00  0.00000000E+00
  0.00000000E+00  0.00000000E+00  0.00000000E+00
  0.00000000E+00  0.00000000E+00  0.00000000E+00
