 C  N  V                                
   1.00000000000000     
    12.4562535760971738    0.0000000000000000    0.0000000000000000
    -0.0000000000000004   12.8179684829918479    0.0000000000000000
     0.0000000000000003    0.0000000000000000   19.8713392819153718
   C    N    V 
    56     2     1
Direct
  0.0522358060940087  0.0474682006295570  0.1596178430310195
  0.1523913620036915  0.1024295405707427  0.1596872590270429
  0.1520512642275634  0.2136179575541828  0.1595369147428623
  0.0524033920544095  0.2690220076393524  0.1595010046857122
  0.2527315263181787  0.0474670297882825  0.1596769681276549
  0.3529922448530172  0.1026295937783703  0.1586563394943826
  0.3523317957900620  0.2141192117569717  0.1571076986611043
  0.2517391810842236  0.2689728712573535  0.1586983020295805
  0.4537145736851310  0.0480282886238700  0.1585409293152175
  0.5535068464940752  0.1055678740398262  0.1586355418022435
  0.5535630546766274  0.2180153024165093  0.1580654412958505
  0.4517005227912359  0.2712805104016803  0.1551042898671494
  0.6524740686298511  0.0479709519215357  0.1591243833072532
  0.7519399902533354  0.1039162584745441  0.1587833821754262
  0.7525519289686915  0.2162743286955057  0.1588633395451630
  0.6541209597026140  0.2756456515812016  0.1599906214871370
  0.8517741419181558  0.0477839510947390  0.1589870906643004
  0.9521448571466796  0.1025391511185339  0.1592783140904278
  0.9525627154595746  0.2138082833916953  0.1591954530628323
  0.8533021764401764  0.2695833106026526  0.1589038526080879
  0.0520839752661196  0.3804829392149155  0.1594532715595218
  0.1507175054295186  0.4360629880534179  0.1603656951136853
  0.1507419719779712  0.5477069747801010  0.1603718143857417
  0.0520929202376911  0.6033055317677420  0.1594593049030781
  0.2495150325296396  0.3800391884618065  0.1595806705042624
  0.3483453271998736  0.4351702738714172  0.1560661293373449
  0.3483604569295731  0.5485205173529832  0.1560906416104677
  0.2495371548602147  0.6036860995024385  0.1596063110017570
  0.7553491404397394  0.4354678441039826  0.1605703564748846
  0.7553466160334303  0.5482794230746204  0.1605378560995783
  0.8542247049343368  0.3809793503968146  0.1586072195208459
  0.9533148429158934  0.4364417490861099  0.1585815540814433
  0.9533064673571344  0.5473360181456352  0.1585548706551158
  0.8542156409805920  0.6027809550902671  0.1585520869450774
  0.0524173679234746  0.7147348549374717  0.1595179597349582
  0.1520848033832465  0.7701403979427882  0.1595492542373775
  0.0522568581453130  0.9363192955531148  0.1596420811157074
  0.2517687741878877  0.7147669869885017  0.1587007396259069
  0.3523780688389531  0.7696299376623011  0.1570786975230697
  0.3530029499322327  0.8810918928342085  0.1586623636184436
  0.2527361322284284  0.9362533967924856  0.1596917151723930
  0.4517368941600716  0.7124758381357398  0.1551256030855594
  0.5536022835283992  0.7657451945688240  0.1581059138758831
  0.5535319941114166  0.8781926556496914  0.1586480875517228
  0.4537380536854200  0.9357036558305689  0.1585538298658142
  0.6541319432297298  0.7081103410488894  0.1599909375617011
  0.7525582840270889  0.7674602457390238  0.1588601810385274
  0.7519631100218296  0.8798375545526915  0.1587952038861543
  0.6525071265769556  0.9357763529082955  0.1591413037213464
  0.8533197239971270  0.7141654698253285  0.1588848811384600
  0.9525661797891382  0.7699567502056414  0.1592060863598390
  0.8518019629227617  0.9359380937796035  0.1589898007893660
  0.1523966466498108  0.8813145209267708  0.1597169318321487
  0.9521723253401903  0.8811979634701420  0.1592936713657531
  0.4471848171540370  0.3811314208327302  0.1533395940286542
  0.4471947187201169  0.6026151729065874  0.1533560483127375
  0.6579007092129268  0.3845273755177642  0.1638158553039206
  0.6579017748874791  0.5992157562041478  0.1638018242631591
  0.5379424216524111  0.4918787430642448  0.1885587432500617
 
  0.00000000E+00  0.00000000E+00  0.00000000E+00
  0.00000000E+00  0.00000000E+00  0.00000000E+00
  0.00000000E+00  0.00000000E+00  0.00000000E+00
  0.00000000E+00  0.00000000E+00  0.00000000E+00
  0.00000000E+00  0.00000000E+00  0.00000000E+00
  0.00000000E+00  0.00000000E+00  0.00000000E+00
  0.00000000E+00  0.00000000E+00  0.00000000E+00
  0.00000000E+00  0.00000000E+00  0.00000000E+00
  0.00000000E+00  0.00000000E+00  0.00000000E+00
  0.00000000E+00  0.00000000E+00  0.00000000E+00
  0.00000000E+00  0.00000000E+00  0.00000000E+00
  0.00000000E+00  0.00000000E+00  0.00000000E+00
  0.00000000E+00  0.00000000E+00  0.00000000E+00
  0.00000000E+00  0.00000000E+00  0.00000000E+00
  0.00000000E+00  0.00000000E+00  0.00000000E+00
  0.00000000E+00  0.00000000E+00  0.00000000E+00
  0.00000000E+00  0.00000000E+00  0.00000000E+00
  0.00000000E+00  0.00000000E+00  0.00000000E+00
  0.00000000E+00  0.00000000E+00  0.00000000E+00
  0.00000000E+00  0.00000000E+00  0.00000000E+00
  0.00000000E+00  0.00000000E+00  0.00000000E+00
  0.00000000E+00  0.00000000E+00  0.00000000E+00
  0.00000000E+00  0.00000000E+00  0.00000000E+00
  0.00000000E+00  0.00000000E+00  0.00000000E+00
  0.00000000E+00  0.00000000E+00  0.00000000E+00
  0.00000000E+00  0.00000000E+00  0.00000000E+00
  0.00000000E+00  0.00000000E+00  0.00000000E+00
  0.00000000E+00  0.00000000E+00  0.00000000E+00
  0.00000000E+00  0.00000000E+00  0.00000000E+00
  0.00000000E+00  0.00000000E+00  0.00000000E+00
  0.00000000E+00  0.00000000E+00  0.00000000E+00
  0.00000000E+00  0.00000000E+00  0.00000000E+00
  0.00000000E+00  0.00000000E+00  0.00000000E+00
  0.00000000E+00  0.00000000E+00  0.00000000E+00
  0.00000000E+00  0.00000000E+00  0.00000000E+00
  0.00000000E+00  0.00000000E+00  0.00000000E+00
  0.00000000E+00  0.00000000E+00  0.00000000E+00
  0.00000000E+00  0.00000000E+00  0.00000000E+00
  0.00000000E+00  0.00000000E+00  0.00000000E+00
  0.00000000E+00  0.00000000E+00  0.00000000E+00
  0.00000000E+00  0.00000000E+00  0.00000000E+00
  0.00000000E+00  0.00000000E+00  0.00000000E+00
  0.00000000E+00  0.00000000E+00  0.00000000E+00
  0.00000000E+00  0.00000000E+00  0.00000000E+00
  0.00000000E+00  0.00000000E+00  0.00000000E+00
  0.00000000E+00  0.00000000E+00  0.00000000E+00
  0.00000000E+00  0.00000000E+00  0.00000000E+00
  0.00000000E+00  0.00000000E+00  0.00000000E+00
  0.00000000E+00  0.00000000E+00  0.00000000E+00
  0.00000000E+00  0.00000000E+00  0.00000000E+00
  0.00000000E+00  0.00000000E+00  0.00000000E+00
  0.00000000E+00  0.00000000E+00  0.00000000E+00
  0.00000000E+00  0.00000000E+00  0.00000000E+00
  0.00000000E+00  0.00000000E+00  0.00000000E+00
  0.00000000E+00  0.00000000E+00  0.00000000E+00
  0.00000000E+00  0.00000000E+00  0.00000000E+00
  0.00000000E+00  0.00000000E+00  0.00000000E+00
  0.00000000E+00  0.00000000E+00  0.00000000E+00
  0.00000000E+00  0.00000000E+00  0.00000000E+00
