 C  N  V                                
   1.00000000000000     
     8.4779960573055924    0.0003394963623310   -0.0001809047082250
     0.0003124450526431    8.4783946958492322    0.0000905186927926
    -0.0004230993210936    0.0002128553104278   19.8492037423542627
   C    N    V 
    21     3     1
Direct
  0.4991260245430951  0.0833524634257117  0.1542938464285584
  0.3511241208433020  0.1643749455313355  0.1542771359284103
  0.6459658799047929  0.1637012006980001  0.1542352938616247
  0.7966613825829043  0.9164771521933375  0.1539773436018166
  0.7960517911015401  0.0821453131082635  0.1540018280647431
  0.9178364018554674  0.2039467564389170  0.1539928396142969
  0.8362580459795623  0.3540260208695116  0.1542045826071003
  0.2041645901651634  0.0836574635021137  0.1540167608570187
  0.0834950774305696  0.2033515809488549  0.1539847977641600
  0.1672197200601815  0.3526328788765198  0.1542371153647011
  0.0878043195225189  0.5012707887345798  0.1542613633522194
  0.1664936786533602  0.6489671921970270  0.1542544800826278
  0.3510096721457359  0.8335183536316961  0.1542691138634709
  0.2028433471141540  0.9161557060580634  0.1540170393771589
  0.0838413909881197  0.7971394803721097  0.1540019072143650
  0.6473718850643664  0.8327989124791699  0.1542227418761115
  0.8356063959172175  0.6488506092209505  0.1542153026658539
  0.9163275158303108  0.7958076391763811  0.1539870105511909
  0.4987148611952321  0.9121791435485562  0.1542794512146344
  0.9166180254888090  0.5008522454660707  0.1542415006845133
  0.6684874153384257  0.3314680745334186  0.1544142760042604
  0.3289566871695015  0.3291218082769447  0.1544354003140711
  0.3284389220628867  0.6715723525035102  0.1544300084248533
  0.6708580590049067  0.6710301692630480  0.1543827490986089
  0.4990743499689927  0.5009146665340865  0.1547791210044167
 
  0.00000000E+00  0.00000000E+00  0.00000000E+00
  0.00000000E+00  0.00000000E+00  0.00000000E+00
  0.00000000E+00  0.00000000E+00  0.00000000E+00
  0.00000000E+00  0.00000000E+00  0.00000000E+00
  0.00000000E+00  0.00000000E+00  0.00000000E+00
  0.00000000E+00  0.00000000E+00  0.00000000E+00
  0.00000000E+00  0.00000000E+00  0.00000000E+00
  0.00000000E+00  0.00000000E+00  0.00000000E+00
  0.00000000E+00  0.00000000E+00  0.00000000E+00
  0.00000000E+00  0.00000000E+00  0.00000000E+00
  0.00000000E+00  0.00000000E+00  0.00000000E+00
  0.00000000E+00  0.00000000E+00  0.00000000E+00
  0.00000000E+00  0.00000000E+00  0.00000000E+00
  0.00000000E+00  0.00000000E+00  0.00000000E+00
  0.00000000E+00  0.00000000E+00  0.00000000E+00
  0.00000000E+00  0.00000000E+00  0.00000000E+00
  0.00000000E+00  0.00000000E+00  0.00000000E+00
  0.00000000E+00  0.00000000E+00  0.00000000E+00
  0.00000000E+00  0.00000000E+00  0.00000000E+00
  0.00000000E+00  0.00000000E+00  0.00000000E+00
  0.00000000E+00  0.00000000E+00  0.00000000E+00
  0.00000000E+00  0.00000000E+00  0.00000000E+00
  0.00000000E+00  0.00000000E+00  0.00000000E+00
  0.00000000E+00  0.00000000E+00  0.00000000E+00
  0.00000000E+00  0.00000000E+00  0.00000000E+00
